# vtk DataFile Version 3.0
2D Stress-Strain Distribution
ASCII
DATASET POLYDATA
POINTS 21 float
0 0 0
0 100 0
0 200 0
200 0 0
200 100 0
200 200 0
400 0 0
400 100 0
400 200 0
600 0 0
600 100 0
600 200 0
800 0 0
800 100 0
800 200 0
1000 0 0
1000 100 0
1000 200 0
1200 0 0
1200 100 0
1200 200 0
POLYGONS 12 60 
4 0 3 4 1 
4 1 4 5 2 
4 3 6 7 4 
4 4 7 8 5 
4 6 9 10 7 
4 7 10 11 8 
4 9 12 13 10 
4 10 13 14 11 
4 12 15 16 13 
4 13 16 17 14 
4 15 18 19 16 
4 16 19 20 17 
CELL_DATA 12
NORMALS cell_normals float
0 0 1
0 0 1
0 0 1
0 0 1
0 0 1
0 0 1
0 0 1
0 0 1
0 0 1
0 0 1
0 0 1
0 0 1
POINT_DATA 21
SCALARS x_displacement float 1
LOOKUP_TABLE default
0
0
0
0.0847059
3.21873e-20
-0.0847059
0.169412
-3.72694e-20
-0.169412
0.254118
2.03288e-20
-0.254118
0.338824
-6.77626e-21
-0.338824
0.423529
-1.0842e-19
-0.423529
0.508235
-1.96512e-19
-0.508235
SCALARS y_displacement float 1
LOOKUP_TABLE default
0
-0.00529412
-2.81638e-19
0.0847059
0.0794118
0.0847059
0.338824
0.333529
0.338824
0.762353
0.757059
0.762353
1.35529
1.35
1.35529
2.11765
2.11235
2.11765
3.04941
3.04412
3.04941
SCALARS x_strain float 1
LOOKUP_TABLE default
0.000334027
-8.95023e-05
-0.000334027
0.000334027
-8.95023e-05
-0.000334027
0.000334027
-8.95023e-05
-0.000334027
0.000334027
-8.95023e-05
-0.000334027
0.000334027
-8.95023e-05
-0.000334027
0.000334027
-8.95023e-05
-0.000334027
0.000334027
-8.95023e-05
-0.000334027
SCALARS y_strain float 1
LOOKUP_TABLE default
-5.29412e-05
5.29412e-05
5.29412e-05
-5.29412e-05
5.29412e-05
5.29412e-05
-5.29412e-05
5.29412e-05
5.29412e-05
-5.29412e-05
5.29412e-05
5.29412e-05
-5.29412e-05
5.29412e-05
5.29412e-05
-5.29412e-05
5.29412e-05
5.29412e-05
-5.29412e-05
5.29412e-05
5.29412e-05
SCALARS xy_strain float 1
LOOKUP_TABLE default
0.000244525
0.000244525
0.000244525
0.000244525
0.000244525
0.000244525
0.000244525
0.000244525
0.000244525
0.000244525
0.000244525
0.000244525
0.000244525
0.000244525
0.000244525
0.000244525
0.000244525
0.000244525
-0.000244525
-0.000244525
-0.000244525
SCALARS x_stress float 1
LOOKUP_TABLE default
34.2178
-8.13515
-34.2178
34.2178
-8.13515
-34.2178
34.2178
-8.13515
-34.2178
34.2178
-8.13515
-34.2178
34.2178
-8.13515
-34.2178
34.2178
-8.13515
-34.2178
34.2178
-8.13515
-34.2178
SCALARS y_stress float 1
LOOKUP_TABLE default
3.26033
3.26033
-3.26033
3.26033
3.26033
-3.26033
3.26033
3.26033
-3.26033
3.26033
3.26033
-3.26033
3.26033
3.26033
-3.26033
3.26033
3.26033
-3.26033
3.26033
3.26033
-3.26033
SCALARS xy_stress float 1
LOOKUP_TABLE default
9.78099
9.78099
9.78099
9.78099
9.78099
9.78099
9.78099
9.78099
9.78099
9.78099
9.78099
9.78099
9.78099
9.78099
9.78099
9.78099
9.78099
9.78099
-9.78099
-9.78099
-9.78099
SCALARS x_pstress float 1
LOOKUP_TABLE default
37.0491
8.88213
-0.428985
37.0491
8.88213
-0.428985
37.0491
8.88213
-0.428985
37.0491
8.88213
-0.428985
37.0491
8.88213
-0.428985
37.0491
8.88213
-0.428985
37.0491
8.88213
-0.428985
SCALARS y_pstress float 1
LOOKUP_TABLE default
0.428985
-13.757
-37.0491
0.428985
-13.757
-37.0491
0.428985
-13.757
-37.0491
0.428985
-13.757
-37.0491
0.428985
-13.757
-37.0491
0.428985
-13.757
-37.0491
0.428985
-13.757
-37.0491
SCALARS xy_pstress float 1
LOOKUP_TABLE default
0.245311
0.356306
0.245311
0.245311
0.356306
0.245311
0.245311
0.356306
0.245311
0.245311
0.356306
0.245311
0.245311
0.356306
0.245311
0.245311
0.356306
0.245311
-0.245311
-0.356306
-0.245311
SCALARS x_pXYvec float 1
LOOKUP_TABLE default
42.265
42.265
42.265
242.265
242.265
242.265
442.265
442.265
442.265
642.265
642.265
642.265
842.265
842.265
842.265
1042.26
1042.26
1042.26
1157.74
1157.74
1157.74
SCALARS y_pXYvec float 1
LOOKUP_TABLE default
21.1325
121.132
178.868
21.1325
121.132
178.868
21.1325
121.132
178.868
21.1325
121.132
178.868
21.1325
121.132
178.868
21.1325
121.132
178.868
21.1325
121.132
178.868
SCALARS z_pXYvec float 1
LOOKUP_TABLE default
0
0
0
0
0
0
0
0
0
0
0
0
0
0
0
0
0
0
0
0
0
