# vtk DataFile Version 3.0
2D Stress-Strain Distribution
ASCII
DATASET POLYDATA
POINTS 6 float
0 0 0
0 200 0
200 0 0
200 200 0
400 0 0
400 200 0
POLYGONS 2 10 
4 0 2 3 1 
4 2 4 5 3 
CELL_DATA 2
NORMALS cell_normals float
0 0 1
0 0 1
POINT_DATA 6
SCALARS x_displacement float 1
LOOKUP_TABLE default
0
0
3.125
3.125
6.25
6.25
SCALARS y_displacement float 1
LOOKUP_TABLE default
0
-0.78125
-1.38084e-15
-0.78125
-4.0869e-15
-0.78125
SCALARS x_strain float 1
LOOKUP_TABLE default
0.015625
0.015625
0.015625
0.015625
0.015625
0.015625
SCALARS y_strain float 1
LOOKUP_TABLE default
-0.00390625
-0.00390625
-0.00390625
-0.00390625
-0.00390625
-0.00390625
SCALARS xy_strain float 1
LOOKUP_TABLE default
-4.33681e-18
-4.33681e-18
-8.67362e-19
-8.67362e-19
-8.67362e-19
-8.67362e-19
SCALARS x_stress float 1
LOOKUP_TABLE default
1250
1250
1250
1250
1250
1250
SCALARS y_stress float 1
LOOKUP_TABLE default
-1.13687e-13
-1.13687e-13
-5.68434e-14
-5.68434e-14
-5.68434e-14
-5.68434e-14
SCALARS xy_stress float 1
LOOKUP_TABLE default
-1.38778e-13
-1.38778e-13
-2.77556e-14
-2.77556e-14
-2.77556e-14
-2.77556e-14
