# vtk DataFile Version 3.0
2D Stress-Strain Distribution
ASCII
DATASET POLYDATA
POINTS 6 float
0 0 0
0 200 0
200 0 0
200 200 0
400 0 0
400 200 0
POLYGONS 2 10 
4 0 2 3 1 
4 2 4 5 3 
CELL_DATA 2
NORMALS cell_normals float
0 0 1
0 0 1
POINT_DATA 6
SCALARS x_displacement float 1
LOOKUP_TABLE default
0
0
0.744444
1.75556
1.48889
3.51111
SCALARS y_displacement float 1
LOOKUP_TABLE default
0
-0.375
-0.505556
-0.880556
-2.02222
-2.39722
SCALARS x_strain float 1
LOOKUP_TABLE default
0.00479059
0.00770941
0.00479059
0.00770941
0.00479059
0.00770941
SCALARS y_strain float 1
LOOKUP_TABLE default
-0.001875
-0.001875
-0.001875
-0.001875
-0.001875
-0.001875
SCALARS xy_strain float 1
LOOKUP_TABLE default
-0.00145941
-0.00145941
-0.00145941
-0.00145941
0.00145941
0.00145941
SCALARS x_stress float 1
LOOKUP_TABLE default
929.25
1570.75
929.25
1570.75
929.25
1570.75
SCALARS y_stress float 1
LOOKUP_TABLE default
-96.225
96.225
-96.225
96.225
-96.225
96.225
SCALARS xy_stress float 1
LOOKUP_TABLE default
-112.263
-112.263
-112.263
-112.263
112.263
112.263
SCALARS x_pstress float 1
LOOKUP_TABLE default
941.396
1579.25
941.396
1579.25
941.396
1579.25
SCALARS y_pstress float 1
LOOKUP_TABLE default
-108.371
87.7269
-108.371
87.7269
-108.371
87.7269
SCALARS xy_pstress float 1
LOOKUP_TABLE default
-0.105353
-0.0747062
-0.105353
-0.0747062
0.105353
0.0747062
SCALARS x_pXYvec float 1
LOOKUP_TABLE default
42.265
42.265
242.265
242.265
357.735
357.735
SCALARS y_pXYvec float 1
LOOKUP_TABLE default
42.265
157.735
42.265
157.735
42.265
157.735
SCALARS z_pXYvec float 1
LOOKUP_TABLE default
0
0
0
0
0
0
