# vtk DataFile Version 3.0
2D Stress-Strain Distribution
ASCII
DATASET POLYDATA
POINTS 6 float
0 0 0
0 200 0
200 0 0
200 200 0
400 0 0
400 200 0
POLYGONS 2 10 
4 0 2 3 1 
4 2 4 5 3 
CELL_DATA 2
NORMALS cell_normals float
0 0 1
0 0 1
POINT_DATA 6
SCALARS x_displacement float 1
LOOKUP_TABLE default
0
0
3.125
3.125
6.25
6.25
SCALARS y_displacement float 1
LOOKUP_TABLE default
0
-0.78125
-2.38631e-15
-0.78125
-4.90428e-15
-0.78125
SCALARS x_strain float 1
LOOKUP_TABLE default
0.015625
0.015625
0.015625
0.015625
0.015625
0.015625
SCALARS y_strain float 1
LOOKUP_TABLE default
-0.00390625
-0.00390625
-0.00390625
-0.00390625
-0.00390625
-0.00390625
SCALARS xy_strain float 1
LOOKUP_TABLE default
-9.32414e-18
-7.80626e-18
-7.26415e-18
-2.1684e-18
-9.43256e-18
-4.33681e-18
SCALARS x_stress float 1
LOOKUP_TABLE default
1250
1250
1250
1250
1250
1250
SCALARS y_stress float 1
LOOKUP_TABLE default
-2.84217e-13
-1.13687e-13
0
-5.68434e-14
1.13687e-13
5.68434e-14
SCALARS xy_stress float 1
LOOKUP_TABLE default
-2.98372e-13
-2.498e-13
-2.32453e-13
-6.93889e-14
-3.01842e-13
-1.38778e-13
SCALARS x_pstress float 1
LOOKUP_TABLE default
1250
1250
1250
1250
1250
1250
SCALARS y_pstress float 1
LOOKUP_TABLE default
-2.27374e-13
0
0
0
2.27374e-13
0
SCALARS xy_pstress float 1
LOOKUP_TABLE default
-2.38698e-16
-1.9984e-16
-1.85962e-16
-5.55112e-17
-2.41474e-16
-1.11022e-16
SCALARS x_pXYvec float 1
LOOKUP_TABLE default
42.265
42.265
242.265
242.265
357.735
357.735
SCALARS y_pXYvec float 1
LOOKUP_TABLE default
42.265
157.735
42.265
157.735
42.265
157.735
SCALARS z_pXYvec float 1
LOOKUP_TABLE default
0
0
0
0
0
0
