# vtk DataFile Version 3.0
2D Stress-Strain Distribution
ASCII
DATASET POLYDATA
POINTS 2333 float
15.8 1.2 0
32.8 1.2 0
32.8 7.3 0
31.3 7.3 0
31 8.5 0
30 8.5 0
30.1 7.3 0
30.3 6.1 0
24.7 5.8 0
24.7 5.6 0
24.2 5.6 0
24.2 5.3 0
23.8 5.3 0
23.8 5.1 0
23.4 5.1 0
23.4 4.9 0
23 4.9 0
23 4.6 0
22.5 4.6 0
22.5 4.3 0
20.3 4.3 0
20.3 4 0
19.8 4 0
19.8 3.8 0
19.4 3.8 0
19.4 3.5 0
19 3.5 0
19 3.3 0
18.6 3.3 0
18.6 3.1 0
18.2 3 0
18.2 2.8 0
17.7 2.8 0
17.7 2.6 0
17.4 2.5 0
17.4 2.3 0
16.9 2.3 0
16.9 2 0
16.5 2 0
16.5 1.8 0
16.1 1.8 0
16.1 1.5 0
15.8 1.5 0
16.2474 1.2 0
16.6947 1.2 0
17.1421 1.2 0
17.5895 1.2 0
18.0368 1.2 0
18.4842 1.2 0
18.9316 1.2 0
19.3789 1.2 0
19.8263 1.2 0
20.2737 1.2 0
20.7211 1.2 0
21.1684 1.2 0
21.6158 1.2 0
22.0632 1.2 0
22.5105 1.2 0
22.9579 1.2 0
23.4053 1.2 0
23.8526 1.2 0
24.3 1.2 0
24.7474 1.2 0
25.1947 1.2 0
25.6421 1.2 0
26.0895 1.2 0
26.5368 1.2 0
26.9842 1.2 0
27.4316 1.2 0
27.8789 1.2 0
28.3263 1.2 0
28.7737 1.2 0
29.2211 1.2 0
29.6684 1.2 0
30.1158 1.2 0
30.5632 1.2 0
31.0105 1.2 0
31.4579 1.2 0
31.9053 1.2 0
32.3526 1.2 0
32.8 1.36053 0
32.8 1.52105 0
32.8 1.68158 0
32.8 1.84211 0
32.8 2.00263 0
32.8 2.16316 0
32.8 2.32368 0
32.8 2.48421 0
32.8 2.64474 0
32.8 2.80526 0
32.8 2.96579 0
32.8 3.12632 0
32.8 3.28684 0
32.8 3.44737 0
32.8 3.60789 0
32.8 3.76842 0
32.8 3.92895 0
32.8 4.08947 0
32.8 4.25 0
32.8 4.41053 0
32.8 4.57105 0
32.8 4.73158 0
32.8 4.89211 0
32.8 5.05263 0
32.8 5.21316 0
32.8 5.37368 0
32.8 5.53421 0
32.8 5.69474 0
32.8 5.85526 0
32.8 6.01579 0
32.8 6.17632 0
32.8 6.33684 0
32.8 6.49737 0
32.8 6.65789 0
32.8 6.81842 0
32.8 6.97895 0
32.8 7.13947 0
32.6125 7.3 0
32.425 7.3 0
32.2375 7.3 0
32.05 7.3 0
31.8625 7.3 0
31.675 7.3 0
31.4875 7.3 0
31.2625 7.45 0
31.225 7.6 0
31.1875 7.75 0
31.15 7.9 0
31.1125 8.05 0
31.075 8.2 0
31.0375 8.35 0
30.875 8.5 0
30.75 8.5 0
30.625 8.5 0
30.5 8.5 0
30.375 8.5 0
30.25 8.5 0
30.125 8.5 0
30.0125 8.35 0
30.025 8.2 0
30.0375 8.05 0
30.05 7.9 0
30.0625 7.75 0
30.075 7.6 0
30.0875 7.45 0
30.125 7.15 0
30.15 7 0
30.175 6.85 0
30.2 6.7 0
30.225 6.55 0
30.25 6.4 0
30.275 6.25 0
29.9889 6.08333 0
29.6778 6.06667 0
29.3667 6.05 0
29.0556 6.03333 0
28.7444 6.01667 0
28.4333 6 0
28.1222 5.98333 0
27.8111 5.96667 0
27.5 5.95 0
27.1889 5.93333 0
26.8778 5.91667 0
26.5667 5.9 0
26.2556 5.88333 0
25.9444 5.86667 0
25.6333 5.85 0
25.3222 5.83333 0
25.0111 5.81667 0
24.7 5.7 0
24.6167 5.6 0
24.5333 5.6 0
24.45 5.6 0
24.3667 5.6 0
24.2833 5.6 0
24.2 5.525 0
24.2 5.45 0
24.2 5.375 0
24.15 5.3 0
24.1 5.3 0
24.05 5.3 0
24 5.3 0
23.95 5.3 0
23.9 5.3 0
23.85 5.3 0
23.8 5.25 0
23.8 5.2 0
23.8 5.15 0
23.75 5.1 0
23.7 5.1 0
23.65 5.1 0
23.6 5.1 0
23.55 5.1 0
23.5 5.1 0
23.45 5.1 0
23.4 5.05 0
23.4 5 0
23.4 4.95 0
23.35 4.9 0
23.3 4.9 0
23.25 4.9 0
23.2 4.9 0
23.15 4.9 0
23.1 4.9 0
23.05 4.9 0
23 4.825 0
23 4.75 0
23 4.675 0
22.9375 4.6 0
22.875 4.6 0
22.8125 4.6 0
22.75 4.6 0
22.6875 4.6 0
22.625 4.6 0
22.5625 4.6 0
22.5 4.525 0
22.5 4.45 0
22.5 4.375 0
22.3778 4.3 0
22.2556 4.3 0
22.1333 4.3 0
22.0111 4.3 0
21.8889 4.3 0
21.7667 4.3 0
21.6444 4.3 0
21.5222 4.3 0
21.4 4.3 0
21.2778 4.3 0
21.1556 4.3 0
21.0333 4.3 0
20.9111 4.3 0
20.7889 4.3 0
20.6667 4.3 0
20.5444 4.3 0
20.4222 4.3 0
20.3 4.225 0
20.3 4.15 0
20.3 4.075 0
20.2375 4 0
20.175 4 0
20.1125 4 0
20.05 4 0
19.9875 4 0
19.925 4 0
19.8625 4 0
19.8 3.95 0
19.8 3.9 0
19.8 3.85 0
19.75 3.8 0
19.7 3.8 0
19.65 3.8 0
19.6 3.8 0
19.55 3.8 0
19.5 3.8 0
19.45 3.8 0
19.4 3.725 0
19.4 3.65 0
19.4 3.575 0
19.35 3.5 0
19.3 3.5 0
19.25 3.5 0
19.2 3.5 0
19.15 3.5 0
19.1 3.5 0
19.05 3.5 0
19 3.45 0
19 3.4 0
19 3.35 0
18.95 3.3 0
18.9 3.3 0
18.85 3.3 0
18.8 3.3 0
18.75 3.3 0
18.7 3.3 0
18.65 3.3 0
18.6 3.25 0
18.6 3.2 0
18.6 3.15 0
18.55 3.0875 0
18.5 3.075 0
18.45 3.0625 0
18.4 3.05 0
18.35 3.0375 0
18.3 3.025 0
18.25 3.0125 0
18.2 2.95 0
18.2 2.9 0
18.2 2.85 0
18.1375 2.8 0
18.075 2.8 0
18.0125 2.8 0
17.95 2.8 0
17.8875 2.8 0
17.825 2.8 0
17.7625 2.8 0
17.7 2.75 0
17.7 2.7 0
17.7 2.65 0
17.6625 2.5875 0
17.625 2.575 0
17.5875 2.5625 0
17.55 2.55 0
17.5125 2.5375 0
17.475 2.525 0
17.4375 2.5125 0
17.4 2.45 0
17.4 2.4 0
17.4 2.35 0
17.3375 2.3 0
17.275 2.3 0
17.2125 2.3 0
17.15 2.3 0
17.0875 2.3 0
17.025 2.3 0
16.9625 2.3 0
16.9 2.225 0
16.9 2.15 0
16.9 2.075 0
16.85 2 0
16.8 2 0
16.75 2 0
16.7 2 0
16.65 2 0
16.6 2 0
16.55 2 0
16.5 1.95 0
16.5 1.9 0
16.5 1.85 0
16.45 1.8 0
16.4 1.8 0
16.35 1.8 0
16.3 1.8 0
16.25 1.8 0
16.2 1.8 0
16.15 1.8 0
16.1 1.725 0
16.1 1.65 0
16.1 1.575 0
16.0625 1.5 0
16.025 1.5 0
15.9875 1.5 0
15.95 1.5 0
15.9125 1.5 0
15.875 1.5 0
15.8375 1.5 0
15.8 1.425 0
15.8 1.35 0
15.8 1.275 0
32.4842 3.81583 0
21.176 4.07537 0
29.7102 5.66263 0
21.975 4.08322 0
18.545 3.02339 0
20.2631 3.8799 0
17.6939 2.50301 0
18.1411 2.68818 0
18.276 2.68555 0
18.2032 2.56766 0
25.8042 5.40692 0
32.5117 5.09332 0
17.371 2.17512 0
23.7569 4.99738 0
23.895 4.97475 0
23.7941 4.90869 0
24.0053 4.83823 0
23.8479 4.75936 0
16.8804 1.89252 0
18.9592 3.19953 0
19.1027 3.18176 0
19.0012 3.11578 0
19.2086 3.06599 0
31.5222 7.01332 0
19.7605 3.6787 0
22.9054 4.43422 0
23.1327 4.49776 0
23.064 4.29389 0
32.5221 2.87928 0
28.1635 5.41004 0
20.4706 3.86791 0
20.3266 3.78248 0
30.3676 5.71376 0
30.1411 5.13168 0
25.5383 1.86697 0
24.5786 5.37546 0
27.1334 1.98392 0
22.3436 4.12392 0
16.38 1.65551 0
32.4965 6.04378 0
26.9388 5.37448 0
30.3048 1.92416 0
28.77 2.11594 0
32.4856 4.49124 0
23.3253 4.79259 0
30.8162 4.98714 0
30.3871 4.37697 0
29.8579 4.5704 0
23.3691 2.05925 0
32.5763 2.24552 0
30.4919 6.3873 0
19.8601 3.71068 0
19.7925 3.60251 0
21.5565 1.80056 0
30.0828 3.83317 0
29.5611 4.00487 0
30.8136 4.0761 0
30.4219 6.84156 0
18.3834 2.94826 0
30.9358 5.60001 0
31.4219 5.19966 0
24.2595 5.21472 0
23.8888 4.55215 0
24.185 4.61354 0
24.1847 4.26089 0
24.4309 4.24841 0
24.1749 3.92656 0
24.5879 3.93481 0
23.231 4.31521 0
24.532 4.48731 0
23.3419 4.19938 0
23.1894 4.03579 0
24.4718 3.56153 0
25.0156 3.67877 0
19.8827 3.59569 0
19.8576 3.46171 0
20.0232 3.42563 0
20.0095 3.22622 0
19.3083 3.42313 0
19.4549 3.41377 0
17.8353 2.51173 0
17.7606 2.43442 0
31.4063 5.62174 0
30.39 7.3359 0
23.6732 4.54618 0
25.2489 4.10626 0
25.4329 3.43792 0
17.536 2.46452 0
25.6955 3.91599 0
26.1868 3.74489 0
17.0833 2.0596 0
17.0425 1.91223 0
31.0413 6.02141 0
24.7926 5.39779 0
30.6703 8.23833 0
24.1558 3.55284 0
19.6763 3.63875 0
18.6234 3.02912 0
19.0693 2.97579 0
18.6232 2.92411 0
22.978 3.90602 0
23.0657 3.6896 0
22.7165 3.78123 0
22.837 3.44751 0
22.4984 3.43315 0
22.6708 2.99609 0
23.0839 2.81313 0
22.3229 3.18605 0
30.5125 3.58661 0
31.181 3.77277 0
31.4475 4.1708 0
31.4281 6.02549 0
24.1458 3.10869 0
19.3949 3.30222 0
26.449 4.27857 0
26.7143 3.5825 0
26.996 4.14745 0
27.2584 3.3991 0
23.6805 4.87278 0
23.4524 4.82043 0
23.402 4.71291 0
31.808 5.68206 0
31.2944 7.01445 0
24.6996 5.26549 0
22.6239 4.37333 0
32.1556 6.98288 0
19.7925 2.01128 0
19.1833 3.40295 0
23.8884 5.12558 0
16.6793 1.89752 0
31.7344 3.94674 0
31.55 3.55148 0
24.3021 5.35076 0
29.2935 4.72072 0
28.996 4.17504 0
29.2989 3.42058 0
23.2448 4.72875 0
22.4518 2.54627 0
30.9015 7.82482 0
16.9596 1.79129 0
19.5474 3.27421 0
19.3619 2.94521 0
19.1574 2.7176 0
19.4513 2.65921 0
27.555 3.98087 0
20.7188 4.14011 0
20.1894 3.22786 0
20.0132 2.91741 0
20.3708 3.02175 0
20.0012 3.75893 0
24.983 5.39687 0
24.211 5.10701 0
24.3693 5.08877 0
28.7077 3.59131 0
16.7608 1.75393 0
19.3036 2.32825 0
18.8933 2.54243 0
31.8693 4.20646 0
18.0219 2.5688 0
17.9723 2.43889 0
22.6466 4.22947 0
25.9039 3.20944 0
31.7403 4.44247 0
31.3433 6.72194 0
31.6289 6.8017 0
31.0196 6.70711 0
23.4345 4.3882 0
20.1994 2.67484 0
20.4957 2.68203 0
20.8745 3.0985 0
18.7818 3.19876 0
20.9435 2.72143 0
21.2763 3.18175 0
20.855 3.5033 0
21.2799 3.49758 0
22.0107 3.45789 0
23.3569 3.68869 0
23.4821 4.92665 0
19.5869 3.7017 0
31.812 6.0502 0
32.1628 5.7179 0
32.1785 5.38599 0
31.9291 3.42734 0
31.8051 2.96761 0
31.3557 3.08071 0
31.7436 2.46715 0
19.5192 3.50176 0
21.7395 3.08108 0
25.4614 4.53627 0
20.4142 3.62077 0
17.5373 2.37384 0
19.0034 2.23917 0
18.6863 2.20517 0
18.4143 2.50426 0
18.3924 2.69154 0
21.3927 2.84182 0
30.9676 7.3083 0
19.6955 3.03583 0
15.9508 1.4459 0
28.7541 4.93746 0
18.7644 2.92407 0
30.2874 7.99617 0
24.8925 5.14482 0
19.9066 3.85546 0
19.4802 3.11431 0
20.4857 4.09079 0
23.2091 4.81453 0
24.1115 5.17204 0
17.9217 2.69775 0
32.3898 1.60002 0
24.7509 1.8818 0
19.273 3.34541 0
26.9682 2.84944 0
27.8241 3.19378 0
24.7419 2.52884 0
18.8875 3.08076 0
18.8048 2.7619 0
18.6453 2.4969 0
18.3433 2.82453 0
17.1087 2.18744 0
23.2748 4.44346 0
22.6721 1.87724 0
24.3279 4.88442 0
29.0519 2.79912 0
29.867 3.28415 0
29.0742 5.35802 0
17.8677 2.3227 0
18.0288 2.17221 0
17.8128 2.05272 0
32.1164 4.60531 0
31.9213 4.96728 0
31.1649 4.49707 0
26.3369 1.86729 0
27.2698 4.7432 0
25.2172 5.04813 0
23.6727 3.15893 0
24.111 2.56333 0
24.5028 5.26026 0
22.3788 3.64516 0
29.5066 1.97715 0
23.1442 4.67627 0
24.4581 5.43479 0
20.6278 3.72861 0
21.0547 3.82977 0
21.3561 3.79577 0
21.6154 3.49624 0
25.0538 4.6845 0
26.358 5.39136 0
26.1516 4.89247 0
26.7002 4.822 0
27.862 1.88725 0
23.5345 4.7173 0
30.6932 6.08389 0
32.2924 4.84253 0
32.0613 3.838 0
32.2793 3.34501 0
32.1243 4.19488 0
18.3895 2.25959 0
18.2815 1.9811 0
20.0429 3.8921 0
20.1775 3.75088 0
20.6136 3.99761 0
23.836 3.96481 0
17.7117 2.25157 0
17.5415 2.24461 0
17.4976 2.03908 0
17.2717 2.00934 0
31.8329 5.3136 0
17.2631 2.17051 0
17.2571 1.79385 0
31.8144 6.47148 0
32.1899 6.38959 0
30.4049 7.68993 0
30.6136 7.91015 0
17.0721 1.59491 0
20.9317 4.10472 0
29.5628 5.2192 0
32.4963 5.39581 0
31.4058 6.39669 0
30.6921 7.59552 0
30.6781 7.32595 0
30.4595 6.58128 0
22.1515 4.10571 0
20.4682 3.39298 0
27.8511 4.60457 0
17.8011 2.63285 0
27.5438 5.36258 0
32.5003 6.36298 0
32.4899 5.71457 0
30.8073 8.03888 0
32.4957 6.67615 0
30.9882 7.01644 0
31.0532 6.3794 0
20.2081 3.59029 0
16.7864 1.88945 0
24.9785 5.58377 0
21.4429 4.05998 0
19.6527 3.708 0
19.2288 3.44342 0
22.7437 4.48418 0
22.8377 4.50684 0
23.6827 4.9923 0
18.883 3.19639 0
30.4075 7.04189 0
31.877 6.92007 0
31.979 6.70371 0
19.1138 3.34716 0
21.7162 4.06142 0
28.428 4.3895 0
22.0552 2.80385 0
23.5625 4.85965 0
23.684 4.72508 0
16.4482 1.71537 0
16.2337 1.65484 0
16.1726 1.45841 0
16.5501 1.71393 0
22.3809 3.97546 0
21.9797 3.82813 0
18.5095 2.9637 0
24.6662 4.86579 0
19.5757 2.44512 0
25.2098 3.08109 0
24.5526 5.13533 0
24.0619 5.22457 0
22.8809 2.29338 0
23.2785 4.83802 0
32.5301 2.51025 0
32.1953 2.4851 0
31.7499 1.90697 0
23.492 4.56418 0
19.7598 3.28227 0
16.5746 1.83465 0
24.7267 3.19516 0
30.9118 3.30427 0
30.4797 2.73467 0
30.2724 3.22409 0
17.6586 2.38541 0
30.7404 6.38358 0
23.9865 5.2076 0
26.4378 3.02915 0
22.2602 2.00485 0
23.5857 4.99268 0
18.6745 3.13272 0
31.5573 4.78128 0
19.5918 3.60633 0
23.5595 2.65175 0
30.4067 8.2761 0
17.6307 2.48464 0
19.5947 3.50987 0
19.7996 2.63885 0
23.6345 4.32249 0
23.8877 4.28085 0
31.0663 1.88824 0
17.4786 2.46691 0
20.404 1.81536 0
18.6711 1.82192 0
24.8672 4.31256 0
28.1274 3.78826 0
20.4956 2.30665 0
19.5792 3.40297 0
18.9309 2.81162 0
32.5108 4.79256 0
32.3489 2.00215 0
17.8711 2.58715 0
28.1144 2.36327 0
24.1304 4.96905 0
22.8659 4.14427 0
25.3375 5.40927 0
25.4669 2.53261 0
18.0451 2.68921 0
19.5696 2.81564 0
23.5492 4.05521 0
32.5597 3.28684 0
30.811 8.32388 0
18.0122 1.75641 0
21.0132 2.28921 0
21.0639 1.77489 0
32.465 4.15213 0
32.1974 2.92136 0
18.917 2.93852 0
21.6712 3.791 0
18.3079 2.92739 0
32.165 6.05445 0
30.4873 6.18019 0
30.6524 6.7098 0
20.1651 3.88216 0
19.3193 3.18551 0
23.7619 3.59172 0
23.2473 3.2647 0
27.5186 2.62159 0
29.2999 5.6606 0
18.4459 2.88122 0
23.9724 5.0725 0
25.6563 4.96894 0
22.6703 4.08648 0
32.2296 5.06299 0
26.7629 2.45523 0
19.1995 3.2648 0
24.3298 5.4539 0
20.0864 2.42898 0
19.7188 3.5217 0
17.6109 1.70238 0
17.0215 2.21496 0
29.7081 2.68619 0
30.6851 7.03344 0
18.5824 2.75177 0
19.4229 2.04418 0
31.1749 2.53216 0
20.4228 4.16978 0
18.7448 3.07366 0
23.1119 4.78442 0
16.1743 1.70094 0
32.1963 6.68828 0
22.75 4.33223 0
20.8052 3.90741 0
22.2768 3.95481 0
30.9497 7.57981 0
23.4912 5.00016 0
23.893 5.20324 0
23.3179 4.61267 0
24.3746 5.26938 0
32.4684 6.98624 0
18.688 3.20347 0
16.5765 1.50149 0
19.0678 3.41057 0
17.8093 2.70426 0
16.5868 1.90502 0
22.6231 4.47047 0
22.4754 4.10356 0
19.4969 3.68024 0
16.6319 1.79157 0
21.5487 3.25815 0
26.2856 2.47217 0
19.8691 3.91331 0
19.5039 3.57154 0
24.0106 1.91804 0
28.767 5.56016 0
18.1498 2.35442 0
32.6206 3.53053 0
30.7287 7.77514 0
28.4239 2.98641 0
19.6797 3.40774 0
19.1717 1.83308 0
20.2172 3.39533 0
16.2873 1.61467 0
20.0288 3.58923 0
25.9388 4.40489 0
30.4914 8.11177 0
20.5893 4.16862 0
19.9627 3.90759 0
30.2474 8.24754 0
21.6547 2.32325 0
23.1891 4.5953 0
15.9879 1.47295 0
15.9504 1.47295 0
15.9129 1.47295 0
30.5525 8.01096 0
30.7104 7.97451 0
30.7388 8.13861 0
30.5808 8.17505 0
30.6456 8.07478 0
19.5879 3.07507 0
19.7277 3.15905 0
19.6536 3.27824 0
19.5138 3.19426 0
19.6207 3.17666 0
32.2041 5.22449 0
32.0057 5.34979 0
31.8771 5.14044 0
32.0754 5.01514 0
32.0406 5.18247 0
23.0663 4.54888 0
23.1609 4.54653 0
23.1667 4.63578 0
23.0721 4.63813 0
23.1165 4.59233 0
28.4588 5.17375 0
28.9141 5.14774 0
28.9206 5.45909 0
28.4653 5.4851 0
28.6897 5.31642 0
22.8773 2.90461 0
22.5613 2.77118 0
22.6663 2.41982 0
22.9824 2.55325 0
22.7718 2.66222 0
30.6816 7.1797 0
30.8366 7.02494 0
30.9779 7.16237 0
30.8228 7.31713 0
30.8297 7.17103 0
21.0539 4.09004 0
20.8685 4.00606 0
20.93 3.86859 0
21.1154 3.95257 0
20.9919 3.97932 0
30.9586 7.44405 0
31.1338 7.30415 0
31.0873 7.5899 0
31.1106 7.44703 0
21.6937 3.92621 0
21.5796 4.0607 0
21.3995 3.92788 0
21.5136 3.79339 0
21.5466 3.92705 0
24.3585 4.55043 0
24.5991 4.67655 0
24.4971 4.87511 0
24.2565 4.74898 0
24.4278 4.71277 0
31.3746 6.55932 0
31.1815 6.71452 0
31.0364 6.54325 0
31.2295 6.38805 0
31.2055 6.55128 0
19.0569 3.32358 0
19.0908 3.37886 0
19.0339 3.40528 0
19.0454 3.36443 0
17.1859 2.17897 0
17.096 2.12352 0
17.1775 2.03447 0
17.2674 2.08993 0
17.1817 2.10672 0
22.7907 4.49551 0
22.7468 4.4082 0
22.8277 4.38322 0
22.8715 4.47053 0
22.8092 4.43937 0
17.3846 2.02421 0
17.4343 2.1071 0
17.317 2.17282 0
17.3508 2.09851 0
30.9906 4.7421 0
31.3611 4.63917 0
31.4896 4.99047 0
31.1191 5.0934 0
31.2401 4.86629 0
23.0421 3.35611 0
23.3021 3.47669 0
23.2113 3.68914 0
22.9513 3.56856 0
23.1267 3.52263 0
26.7225 4.21301 0
27.1329 4.44533 0
26.985 4.7826 0
26.5746 4.55029 0
26.8537 4.49781 0
32.301 4.54827 0
32.4982 4.6419 0
32.4016 4.81755 0
32.2044 4.72392 0
32.3513 4.68291 0
24.4264 2.54608 0
24.7343 2.862 0
24.4363 3.15192 0
24.1284 2.83601 0
24.4313 2.849 0
24.0608 2.24069 0
24.3807 1.89992 0
24.7464 2.20532 0
24.4036 2.223 0
23.128 4.73035 0
23.1945 4.70251 0
23.2269 4.77164 0
23.1605 4.79947 0
23.1775 4.75099 0
19.5419 3.69097 0
19.5004 3.62589 0
19.5479 3.58893 0
19.5894 3.65401 0
19.5449 3.63995 0
32.3707 5.07816 0
32.504 5.24457 0
32.3374 5.3909 0
32.354 5.23453 0
32.2727 3.82692 0
31.9952 3.63267 0
32.1042 3.38617 0
32.3817 3.58042 0
32.1885 3.60655 0
18.4019 2.38192 0
18.5379 2.23238 0
18.6658 2.35103 0
18.5298 2.50058 0
18.5338 2.36648 0
21.813 3.47706 0
21.9952 3.64301 0
21.8255 3.80957 0
21.6433 3.64362 0
21.8192 3.64332 0
26.4259 4.85724 0
26.0452 4.64868 0
26.1939 4.34173 0
26.3099 4.59948 0
21.0675 3.50044 0
21.318 3.64668 0
21.2054 3.81277 0
20.9549 3.66654 0
21.1364 3.65661 0
30.6017 4.68205 0
30.6003 4.22654 0
30.9892 4.28658 0
30.7955 4.48432 0
27.4068 5.05289 0
27.2413 5.36853 0
26.8195 5.09824 0
27.1131 5.07556 0
21.0754 3.14013 0
21.2781 3.33966 0
20.8648 3.3009 0
21.0714 3.32028 0
22.1947 3.55153 0
22.3278 3.79999 0
22.1283 3.89147 0
22.1615 3.7215 0
24.9605 4.49853 0
25.058 4.20941 0
25.3551 4.32127 0
25.2576 4.61039 0
25.1578 4.4099 0
31.171 5.61088 0
31.4172 5.82362 0
31.2347 6.02345 0
30.9885 5.81071 0
31.2029 5.81716 0
23.6898 1.98864 0
23.1635 1.62962 0
23.9316 1.55902 0
23.5475 1.59432 0
32.2383 3.13319 0
32.3597 2.90032 0
32.5409 3.08306 0
32.4195 3.31593 0
32.3896 3.10812 0
19.9539 3.8072 0
19.8533 3.82773 0
19.8301 3.75534 0
19.9306 3.7348 0
19.892 3.78127 0
28.0073 5.0073 0
28.1395 4.49703 0
28.591 4.66348 0
28.2992 4.83539 0
18.3679 2.75804 0
18.2717 2.81226 0
18.238 2.74278 0
18.3342 2.68855 0
18.3029 2.75041 0
30.876 5.29357 0
31.4141 5.4107 0
31.1451 5.35214 0
22.356 2.27556 0
22.4661 1.94105 0
22.7765 2.08531 0
22.5662 2.18043 0
20.7165 3.81801 0
20.7414 3.61595 0
20.8357 3.74227 0
24.7491 1.5409 0
25.5902 1.53348 0
25.1446 1.87438 0
25.1697 1.53719 0
32.1963 2.70323 0
32.3627 2.49768 0
32.5261 2.69477 0
32.3612 2.699 0
18.8491 2.65216 0
19.0253 2.63002 0
19.0441 2.76461 0
18.8679 2.78676 0
18.9466 2.70839 0
29.1777 5.84696 0
28.9113 5.79675 0
29.1871 5.50931 0
29.0492 5.65303 0
31.3142 3.97179 0
31.3062 4.33394 0
30.9973 3.92443 0
31.1517 4.12918 0
31.8019 4.0766 0
31.8048 4.32446 0
31.5939 4.30664 0
31.5909 4.05877 0
31.6979 4.19162 0
17.9465 2.57797 0
18.0335 2.62901 0
17.9834 2.69348 0
17.8964 2.64245 0
17.965 2.63573 0
23.0559 4.76721 0
23.064 4.70267 0
24.0419 5.12227 0
24.0867 5.19831 0
24.0242 5.21608 0
23.9795 5.14005 0
24.0331 5.16918 0
27.5604 4.67389 0
27.8537 5.38631 0
27.707 5.0301 0
20.3389 1.50768 0
20.0982 1.91332 0
19.5857 1.60564 0
19.9623 1.55666 0
32.3451 6.37629 0
32.1775 6.22202 0
32.3308 6.04912 0
32.4984 6.20338 0
32.3379 6.2127 0
31.9968 4.20067 0
31.8978 3.89237 0
32.0928 4.01644 0
31.9473 4.04652 0
17.6266 2.24809 0
17.6852 2.31849 0
17.598 2.37962 0
17.5394 2.30922 0
17.6123 2.31386 0
31.6422 3.74911 0
31.7395 3.48941 0
31.8187 3.69089 0
31.7217 6.63659 0
31.4861 6.76182 0
31.6101 6.43409 0
31.5481 6.59795 0
31.6201 6.03785 0
31.6071 5.6519 0
31.81 5.86613 0
31.6136 5.84487 0
24.3404 1.54996 0
17.1646 1.69438 0
17.1498 1.85304 0
17.0011 1.85176 0
17.0159 1.6931 0
17.0828 1.77307 0
32.1204 4.4001 0
31.9283 4.52389 0
31.9626 4.36228 0
32.0188 4.7863 0
32.261 4.95276 0
32.1399 4.86953 0
25.5588 4.7526 0
25.7001 4.47058 0
25.904 4.93071 0
25.802 4.70064 0
20.6616 3.44814 0
20.4195 3.20737 0
20.6227 3.06013 0
20.6421 3.25413 0
31.0473 6.2004 0
31.417 6.21109 0
31.2321 6.20575 0
19.3998 3.14991 0
19.2639 3.12575 0
19.2852 3.0056 0
19.4211 3.02976 0
19.3425 3.07776 0
30.5902 6.13204 0
30.3936 6.1401 0
30.3338 5.90688 0
30.5304 5.89882 0
30.462 6.01946 0
31.6488 4.61187 0
31.4775 4.4729 0
22.1617 1.60242 0
22.815 1.53862 0
22.4883 1.57052 0
23.4262 4.86022 0
23.5074 4.84004 0
23.5223 4.89315 0
23.441 4.91332 0
23.4742 4.87668 0
30.6517 5.65689 0
30.8672 6.05265 0
30.7595 5.85477 0
26.4369 1.53365 0
25.9376 1.86713 0
26.0135 1.53356 0
22.3288 3.96513 0
22.4281 4.03951 0
22.4095 4.11374 0
22.3102 4.03936 0
22.3692 4.03944 0
29.694 5.86465 0
30.0389 5.6882 0
30.0139 5.88577 0
20.5669 4.23431 0
20.6541 4.15437 0
20.7539 4.22006 0
20.6604 4.22718 0
18.4777 2.92246 0
18.5142 2.8165 0
18.6028 2.83794 0
18.5664 2.9439 0
18.5403 2.8802 0
22.1668 3.32197 0
22.4107 3.3096 0
22.4386 3.53916 0
22.3027 3.43057 0
20.734 1.79513 0
21.1162 1.48745 0
20.7275 1.49756 0
27.2825 1.59196 0
26.7352 1.92561 0
26.8597 1.5628 0
31.6274 5.25663 0
31.7393 4.87428 0
31.6834 5.06546 0
31.5986 7.15666 0
31.5756 6.90751 0
31.753 6.86089 0
31.776 7.11004 0
31.6758 7.00877 0
23.2656 4.11759 0
23.2732 3.86224 0
23.453 3.87195 0
23.4455 4.12729 0
23.3593 3.99477 0
31.2972 7.15723 0
31.4083 7.01389 0
31.4479 7.15694 0
23.125 2.17631 0
22.97 1.85747 0
32.4746 3.98398 0
32.2947 4.17351 0
32.2837 4.00021 0
32.4931 5.55519 0
32.3264 5.71623 0
32.1707 5.55194 0
32.3319 5.55357 0
26.0811 5.39914 0
26.4623 5.64568 0
25.8743 5.63679 0
26.1683 5.64124 0
29.1383 2.04654 0
28.5482 1.65797 0
29.3638 1.58857 0
28.956 1.62327 0
23.5826 4.55518 0
23.6786 4.63563 0
23.6093 4.72119 0
23.5132 4.64074 0
23.5959 4.63818 0
29.9057 1.95066 0
30.2103 1.56208 0
29.7871 1.57533 0
19.6341 3.62254 0
19.6645 3.67338 0
19.6198 3.70485 0
19.6269 3.6637 0
20.3853 3.93396 0
20.5421 3.93276 0
20.5496 4.0442 0
20.3928 4.04539 0
20.4675 3.98908 0
24.5184 5.40512 0
24.4163 5.35208 0
24.4387 5.26482 0
24.5407 5.31786 0
24.4785 5.33497 0
32.1475 1.40001 0
32.3693 1.80108 0
32.0494 1.95456 0
31.8276 1.55348 0
32.0984 1.67728 0
28.0942 1.54363 0
27.4977 1.93559 0
27.6883 1.56779 0
26.6484 5.38292 0
26.2548 5.14192 0
26.5371 5.12008 0
29.3185 5.28861 0
29.0238 4.82909 0
29.4282 4.96996 0
29.1711 5.05885 0
27.0638 5.65391 0
26.7631 5.64979 0
31.3189 6.8682 0
31.1413 7.01544 0
31.0039 6.86177 0
31.1614 6.86498 0
21.3095 4.06768 0
21.2574 3.94023 0
23.6822 4.79893 0
23.766 4.74222 0
23.821 4.83402 0
23.7373 4.89073 0
23.7516 4.81647 0
25.2773 5.2287 0
25.4367 5.00853 0
25.7303 5.18793 0
25.5709 5.40809 0
25.5038 5.20831 0
23.8618 4.12283 0
23.7611 4.30167 0
23.5918 4.18885 0
23.6926 4.01001 0
23.7268 4.15584 0
31.3655 3.66212 0
31.4782 3.86045 0
28.911 2.45753 0
29.6074 2.33167 0
29.38 2.74266 0
29.2592 2.3946 0
18.8324 3.19758 0
18.7633 3.13621 0
18.8161 3.07721 0
18.8852 3.13858 0
18.8243 3.13739 0
25.5026 2.19979 0
25.1044 2.53073 0
25.1245 2.20255 0
23.4643 2.3555 0
23.3217 2.73244 0
23.2234 2.45438 0
21.5821 3.37719 0
21.6441 3.16962 0
21.8751 3.26949 0
21.7286 3.32334 0
27.2755 4.06416 0
27.7031 4.29272 0
27.418 4.36902 0
31.0258 7.86241 0
30.9256 7.70231 0
31.0565 7.72616 0
30.2543 5.42272 0
30.4786 5.05941 0
30.5652 5.35815 0
23.8353 2.60754 0
23.7625 2.29809 0
30.1687 7.94809 0
30.24 7.64496 0
30.3461 7.84305 0
30.2043 7.79652 0
19.4658 2.88043 0
19.6326 2.92574 0
19.5268 2.97775 0
30.7168 6.23373 0
30.8968 6.38149 0
30.882 6.21707 0
32.4753 4.32168 0
32.2978 4.36089 0
30.245 7.31795 0
30.3975 7.51291 0
30.2425 7.48146 0
21.8098 1.50028 0
21.3102 1.78773 0
21.463 1.49386 0
31.1375 7.1598 0
31.8132 6.26084 0
31.6151 6.23597 0
16.1668 1.57742 0
16.204 1.67789 0
16.1371 1.67547 0
16.152 1.62644 0
24.3939 5.44434 0
24.3159 5.40233 0
24.3383 5.31007 0
24.3661 5.37721 0
24.0054 3.94568 0
23.7989 3.77826 0
23.9588 3.57228 0
24.1653 3.7397 0
23.9821 3.75898 0
27.6775 5.66462 0
27.3706 5.65927 0
22.2996 4.21196 0
22.4877 4.20178 0
22.3936 4.20687 0
32.6482 5.38475 0
32.6559 5.07298 0
32.652 5.22886 0
18.4146 2.91474 0
18.3456 2.93782 0
18.3256 2.87596 0
18.3946 2.85288 0
18.3701 2.89535 0
20.8253 4.12242 0
20.9825 4.20236 0
20.8682 4.21121 0
26.8655 2.65234 0
26.9482 2.21958 0
27.326 2.30276 0
27.2434 2.73552 0
27.0958 2.47755 0
30.9411 8.11944 0
30.8544 7.93185 0
30.9835 7.99093 0
30.2349 4.10507 0
30.2976 3.70989 0
30.663 3.83135 0
30.449 3.96821 0
24.2292 4.92674 0
24.0678 4.90364 0
24.0952 4.72588 0
24.1622 4.82631 0
30.7104 7.68533 0
30.8209 7.58766 0
30.8151 7.79998 0
30.818 7.69382 0
30.2788 7.02094 0
30.3988 7.18889 0
30.2619 7.16945 0
23.1656 3.03892 0
23.6161 2.90534 0
23.46 3.21182 0
23.3909 2.97213 0
23.2963 4.52806 0
23.3547 4.41583 0
23.4633 4.47619 0
23.4049 4.58843 0
23.3798 4.50213 0
31.9885 6.05232 0
32.0022 6.43054 0
31.9953 6.24143 0
17.269 2.23525 0
17.1293 2.24372 0
17.1992 2.23949 0
32.645 5.70465 0
32.6466 5.5447 0
32.6482 6.02979 0
32.4932 5.87918 0
32.6466 5.86722 0
28.2984 5.70502 0
27.9879 5.68482 0
31.0384 1.54412 0
30.6855 1.9062 0
30.6243 1.5531 0
30.534 7.33092 0
30.6851 7.46073 0
30.5485 7.64272 0
30.5413 7.48682 0
31.8967 6.5876 0
31.928 6.81189 0
31.8248 6.72424 0
32.6502 6.34991 0
32.6492 6.18985 0
32.0163 6.95148 0
32.1028 7.14144 0
31.9394 7.12574 0
26.3112 2.16973 0
25.8763 2.50239 0
25.9069 2.18476 0
23.6215 4.86622 0
23.5485 4.78848 0
23.6154 4.7937 0
32.0012 2.94449 0
31.7743 2.71738 0
31.9694 2.47613 0
31.9853 2.71031 0
29.5757 4.64556 0
29.1448 4.44788 0
29.2786 4.08995 0
29.7095 4.28764 0
29.4271 4.36776 0
30.3709 6.39365 0
30.4757 6.48429 0
30.3298 6.64064 0
30.3504 6.51715 0
25.3299 5.6213 0
25.6021 5.62905 0
30.943 8.26194 0
30.7407 8.2811 0
30.8409 8.20027 0
20.5492 3.79826 0
20.7094 3.95251 0
20.6293 3.87538 0
30.311 6.77078 0
30.4147 6.94172 0
30.2949 6.89586 0
17.8532 2.54944 0
17.9038 2.47531 0
17.9971 2.50384 0
17.9251 2.52664 0
22.0633 4.09446 0
22.2035 4.20285 0
21.9931 4.19161 0
22.0983 4.19723 0
31.4472 6.88785 0
32.6478 6.66702 0
32.498 6.51957 0
32.649 6.50847 0
30.6161 6.38544 0
30.4896 6.28375 0
30.6032 6.25874 0
29.9995 4.85104 0
29.852 5.17544 0
29.7138 4.9105 0
24.3719 5.17907 0
24.4609 5.11205 0
24.5277 5.1978 0
24.4498 5.18844 0
31.8205 5.49783 0
31.6173 5.45427 0
21.2269 4.18769 0
21.1047 4.19502 0
26.8551 3.86498 0
26.9863 3.4908 0
27.4067 3.68998 0
27.1309 3.77748 0
28.4422 2.2396 0
27.9882 2.12526 0
28.2682 1.89161 0
32.5112 4.94294 0
32.3861 4.94785 0
20.0465 3.94605 0
19.9438 3.9538 0
20.0028 3.89985 0
19.9951 3.94992 0
24.6393 5.48773 0
24.4957 5.51739 0
24.5675 5.50256 0
23.781 4.54916 0
23.8683 4.65576 0
23.7735 4.64569 0
21.4476 3.49691 0
21.4806 3.64515 0
31.4081 1.8976 0
31.433 1.5488 0
29.0033 3.50594 0
29.43 3.71273 0
28.8519 3.88317 0
29.1409 3.79795 0
19.9394 2.22013 0
20.4498 2.06101 0
20.291 2.36782 0
20.1946 2.14057 0
28.712 4.28227 0
28.8679 4.55568 0
31.9854 5.69998 0
31.9956 5.52489 0
21.4125 3.21995 0
21.3345 3.01178 0
21.5661 2.96145 0
21.4893 3.0907 0
23.2529 4.37933 0
23.2865 4.25729 0
23.3882 4.29379 0
23.3206 4.33656 0
20.3427 3.39415 0
20.2033 3.3116 0
20.2801 3.12481 0
20.3114 3.25948 0
26.3179 4.01173 0
26.4505 3.6637 0
26.5865 3.93836 0
25.4722 4.01113 0
25.8171 4.16044 0
25.5861 4.24085 0
30.1225 4.47369 0
29.822 3.91902 0
29.9722 4.19636 0
18.6936 2.75684 0
18.6139 2.62434 0
18.7693 2.51966 0
18.7315 2.63825 0
30.3006 4.76655 0
22.9847 4.36406 0
22.8079 4.23825 0
22.9649 4.21908 0
22.8963 4.30115 0
23.8475 5.03737 0
23.9337 5.02363 0
23.9304 5.09904 0
23.8442 5.11279 0
23.8889 5.06821 0
32.6554 4.76207 0
32.6428 4.45088 0
32.6491 4.60648 0
22.6584 4.15797 0
22.7681 4.11537 0
22.6983 4.28085 0
22.7332 4.19811 0
19.8544 2.97662 0
20.0113 3.07182 0
19.8847 3.25425 0
19.8695 3.11544 0
23.6816 4.93254 0
23.7755 4.95303 0
23.7198 4.99484 0
23.7285 4.94279 0
27.8412 3.88457 0
28.2777 4.08888 0
27.9904 4.1908 0
17.4687 2.38692 0
17.4707 2.2723 0
17.4697 2.32961 0
30.3761 2.97938 0
30.0697 3.25412 0
29.7876 2.98517 0
30.0939 2.71043 0
30.0818 2.98228 0
24.2297 5.25736 0
24.317 5.24205 0
24.2511 5.32538 0
24.284 5.28372 0
19.2281 3.37418 0
19.2907 3.38427 0
19.2685 3.43327 0
19.206 3.42319 0
19.2483 3.40373 0
24.2649 5.45195 0
24.3482 5.52695 0
24.2741 5.52598 0
31.0464 3.53852 0
31.1338 3.19249 0
31.4528 3.3161 0
31.2496 3.42731 0
19.4519 3.53577 0
19.4485 3.66512 0
19.4502 3.60044 0
18.2539 2.91369 0
18.3039 2.97619 0
18.252 2.9631 0
24.1798 4.09373 0
24.0362 4.27087 0
24.0208 4.10828 0
23.4456 5.00008 0
23.4956 5.05008 0
23.4478 5.05004 0
19.0839 3.45528 0
19.0419 3.45264 0
23.8465 5.20162 0
23.8965 5.25162 0
23.8483 5.25081 0
17.0651 2.2012 0
16.9607 2.18248 0
16.9917 2.1048 0
17.0284 2.153 0
25.5642 3.67695 0
25.6684 3.32368 0
26.0453 3.47717 0
25.9411 3.83044 0
25.8048 3.57706 0
29.505 5.66161 0
29.6365 5.44091 0
29.4118 5.47511 0
21.8973 2.94247 0
22.1891 2.99495 0
22.0321 3.13222 0
18.644 3.20173 0
18.694 3.25173 0
18.647 3.25087 0
20.909 2.90996 0
21.1681 2.78162 0
21.1217 2.96087 0
22.7469 4.54209 0
22.8563 4.55342 0
22.8016 4.54776 0
30.7121 3.44544 0
30.8547 3.68494 0
20.104 3.88713 0
20.1701 3.94108 0
20.1083 3.94356 0
32.2721 2.24363 0
31.7467 2.18706 0
32.0094 2.21534 0
16.5434 1.90251 0
16.5934 1.95251 0
16.5467 1.95125 0
31.8338 4.69909 0
32.6325 4.1208 0
32.6421 3.79213 0
32.6373 3.95646 0
18.7546 2.99886 0
18.8407 2.9313 0
18.9022 3.00964 0
18.8284 3.00425 0
18.1126 2.56823 0
18.1722 2.62792 0
18.0931 2.6887 0
18.1028 2.62846 0
29.583 3.35236 0
29.9749 3.55866 0
29.7025 3.63569 0
25.1322 3.89252 0
25.2243 3.55834 0
25.3482 3.78474 0
17.0232 2.25748 0
16.9616 2.24124 0
30.556 6.64554 0
30.5372 6.77568 0
30.4335 6.70816 0
24.1508 3.33076 0
23.7173 3.37532 0
23.9093 3.13381 0
23.9341 3.35304 0
19.7184 3.65873 0
19.7303 3.73935 0
19.6764 3.754 0
19.6974 3.70636 0
21.4826 4.17999 0
21.3547 4.18384 0
20.015 3.67408 0
20.1184 3.58976 0
20.1928 3.67059 0
20.0893 3.75491 0
20.1039 3.67233 0
22.5487 3.87834 0
22.5476 3.7132 0
22.4382 3.83916 0
22.9219 4.02514 0
23.0837 3.9709 0
23.1267 4.16484 0
23.0243 4.09499 0
32.4467 7.14312 0
32.6342 6.9826 0
32.6234 7.1413 0
17.3855 2.23756 0
17.3273 2.23641 0
32.6556 4.91752 0
20.022 3.82552 0
19.9346 3.88153 0
19.9783 3.85352 0
31.5804 3.02416 0
31.8671 3.19747 0
31.66 3.25678 0
18.9443 3.09827 0
18.9802 3.15766 0
18.9211 3.19796 0
18.9327 3.14812 0
16.2605 1.63476 0
16.1363 1.4792 0
16.2299 1.53654 0
16.1984 1.55698 0
22.5619 4.33667 0
22.6235 4.4219 0
22.5615 4.46023 0
22.5617 4.39845 0
16.9713 1.95611 0
17.0629 1.98591 0
16.9815 2.03046 0
22.624 4.53523 0
22.562 4.53012 0
32.312 6.98456 0
32.2748 7.14228 0
24.422 5.52217 0
24.7275 4.12368 0
24.8017 3.80679 0
24.9299 4.0081 0
25.1355 4.86632 0
25.3472 4.80946 0
30.8218 7.45239 0
27.8165 2.49243 0
27.6571 2.21401 0
19.1416 3.45148 0
19.2144 3.47171 0
19.178 3.46159 0
26.5761 3.30583 0
26.703 2.93929 0
27.1133 3.12427 0
26.8447 3.21505 0
18.8448 2.22217 0
18.9484 2.3908 0
18.8071 2.37091 0
19.1485 3.37506 0
19.1566 3.30598 0
19.2362 3.30511 0
19.1924 3.34008 0
22.9527 4.51711 0
22.9045 4.53527 0
23.6914 5.04615 0
23.7785 5.04869 0
23.7349 5.04742 0
24.3138 3.55719 0
24.5298 3.74817 0
24.3814 3.93068 0
24.3476 3.74394 0
19.5935 3.75085 0
19.6349 3.75243 0
17.7547 2.70213 0
17.8172 2.75213 0
17.7586 2.75107 0
23.5928 5.04634 0
23.6342 4.99249 0
23.6421 5.04624 0
30.1362 8.22377 0
30.2487 8.37377 0
30.1306 8.36188 0
22.6677 3.44033 0
22.7768 3.61437 0
22.6077 3.57676 0
28.7379 2.89277 0
28.2691 2.67484 0
28.59 2.56619 0
30.2674 8.12185 0
30.1524 8.08593 0
32.1639 5.88617 0
31.987 5.87615 0
21.7414 4.18071 0
21.612 4.18035 0
17.9208 2.11246 0
17.9125 1.90456 0
18.1468 1.86875 0
18.1551 2.07665 0
18.0338 1.99061 0
18.7909 3.24938 0
18.8915 3.2482 0
18.8412 3.24879 0
24.6996 4.39994 0
24.86 4.77515 0
24.7798 4.58754 0
17.5073 2.46571 0
17.4393 2.43345 0
17.5366 2.41918 0
17.488 2.42632 0
20.2949 3.83119 0
20.2141 3.88103 0
20.1713 3.81652 0
20.252 3.76668 0
20.2331 3.82386 0
19.5633 3.33859 0
19.7198 3.345 0
19.6294 3.40535 0
19.6415 3.3418 0
20.4333 2.85189 0
20.7196 2.70173 0
20.6711 2.88093 0
17.9358 2.74888 0
18.0601 2.74461 0
17.9979 2.74674 0
22.6934 3.93386 0
22.5728 4.09502 0
22.5608 3.98668 0
27.5412 3.29644 0
27.9757 3.49102 0
27.6912 3.5905 0
17.4768 2.49595 0
17.4384 2.47298 0
32.0527 3.16533 0
29.9454 5.43182 0
19.8103 3.69469 0
19.7802 3.74734 0
24.8711 3.43697 0
24.9682 3.13812 0
25.3214 3.2595 0
25.0962 3.34823 0
28.4175 3.68979 0
28.5648 3.98603 0
17.5543 1.87073 0
17.2644 1.9016 0
17.434 1.74812 0
17.4093 1.88616 0
30.3925 3.40535 0
30.1837 3.48201 0
24.0514 5.02078 0
23.9501 4.90649 0
24.0008 4.96363 0
18.1706 2.74409 0
18.1153 2.74435 0
21.8456 4.07232 0
21.8673 4.18616 0
32.6376 4.28584 0
22.7539 3.2218 0
22.9597 3.13036 0
26.1708 3.11929 0
26.3107 3.3915 0
20.3111 3.60553 0
20.3704 3.70163 0
20.2816 3.68611 0
17.8655 2.70101 0
17.8765 2.7505 0
30.7805 8.41194 0
30.909 8.38097 0
24.5992 3.37835 0
24.7005 3.59257 0
30.6688 6.87162 0
30.836 6.70845 0
30.8363 6.8667 0
30.3922 2.32942 0
29.9998 2.33054 0
25.3384 2.80685 0
25.0363 2.83442 0
22.6834 4.47732 0
22.6869 4.35278 0
22.6852 4.41505 0
19.4985 3.74012 0
19.4492 3.73256 0
32.1931 6.53893 0
32.0876 6.69599 0
32.0449 6.56326 0
24.1707 5.03803 0
24.1612 5.13953 0
24.1063 5.08015 0
30.6958 3.01947 0
30.5441 3.21241 0
16.6897 1.94876 0
16.7329 1.89348 0
16.7932 1.94472 0
16.7414 1.94674 0
19.3042 3.46156 0
19.2593 3.46664 0
25.9925 5.16492 0
30.5851 8.36917 0
30.6828 8.39055 0
32.176 6.83558 0
32.052 6.82374 0
23.2892 4.86901 0
23.3019 4.8153 0
23.3627 4.8463 0
23.3259 4.85765 0
23.0219 3.79781 0
23.1475 3.83002 0
20.3614 4.15989 0
20.4836 4.23489 0
20.3918 4.22994 0
23.9933 5.2538 0
24.0809 5.26228 0
24.0371 5.25804 0
23.285 4.76067 0
23.2438 4.82627 0
23.2644 4.79347 0
31.1206 2.2102 0
30.8273 2.63341 0
30.7564 2.26981 0
29.4359 5.85581 0
22.4969 3.09107 0
22.5823 3.2657 0
18.5225 3.0492 0
18.5842 3.02626 0
18.6117 3.06456 0
18.5671 3.05688 0
18.9796 3.24977 0
18.9355 3.24898 0
21.9774 3.95568 0
22.2142 4.03026 0
22.0958 3.99297 0
22.8473 3.84362 0
22.8993 3.70609 0
24.4815 4.36786 0
24.5094 4.09161 0
24.6045 4.24577 0
32.346 6.68221 0
32.4821 6.8312 0
32.329 6.83339 0
17.0763 2.2506 0
19.9064 2.77813 0
19.943 2.53392 0
20.1429 2.55191 0
20.1063 2.79613 0
20.0246 2.66502 0
19.6846 2.72725 0
19.7695 2.85193 0
23.8723 2.87068 0
24.375 3.35456 0
30.5092 7.80004 0
30.3894 8.05397 0
30.4493 7.927 0
22.2535 2.67506 0
22.3752 2.88307 0
18.4763 1.90151 0
18.2482 1.4782 0
18.5776 1.51096 0
18.3622 1.68986 0
25.1603 5.40307 0
25.1504 5.70855 0
24.9808 5.49032 0
25.1553 5.55581 0
25.0548 5.09648 0
24.7794 5.00531 0
24.9574 4.93581 0
18.0611 2.39665 0
17.92 2.3808 0
17.9482 2.24745 0
18.0893 2.26331 0
18.0046 2.32205 0
30.5463 7.03767 0
30.5402 7.18429 0
21.0386 2.03205 0
20.7544 2.29793 0
20.7442 2.04653 0
18.6841 3.05139 0
18.7096 3.10319 0
18.6372 3.11636 0
18.6607 3.08387 0
24.6094 5.00056 0
24.3486 4.9866 0
24.479 4.99358 0
24.3078 4.25465 0
24.3446 4.09267 0
18.4547 3.00685 0
18.5272 2.99355 0
18.4886 3.02802 0
23.0984 4.39583 0
23.0255 4.45647 0
20.6662 4.06886 0
20.7673 4.03746 0
19.3816 3.41845 0
19.4274 3.45689 0
19.3658 3.45923 0
20.0967 3.82102 0
27.6713 2.90768 0
27.3923 3.01598 0
20.5375 4.1297 0
20.6019 4.09928 0
30.6711 7.84264 0
30.7628 7.88725 0
23.2045 4.85726 0
23.2469 4.86314 0
32.3286 5.88267 0
19.487 3.45777 0
19.5115 3.53665 0
19.4695 3.49677 0
26.0675 4.08609 0
28.5658 3.28886 0
29.1754 3.10985 0
28.8706 3.19936 0
23.2037 4.47061 0
23.1475 4.30455 0
23.1756 4.38758 0
23.5345 4.35535 0
23.49 4.24132 0
24.1557 5.23602 0
24.1183 5.24915 0
23.3636 4.75275 0
23.4272 4.76667 0
23.3949 4.80648 0
20.3986 3.8252 0
20.521 3.67469 0
20.4598 3.74994 0
19.8087 3.37199 0
19.7882 3.4917 0
19.6992 3.46472 0
19.754 3.41835 0
24.1849 4.43722 0
24.3332 4.40254 0
20.192 2.96958 0
20.3476 2.67844 0
20.2698 2.82401 0
30.3823 6.26687 0
23.2066 4.21107 0
23.1059 4.84221 0
23.053 4.83361 0
16.1871 1.75047 0
16.1436 1.73774 0
32.6799 3.20658 0
32.661 2.84227 0
32.6705 3.02443 0
20.0163 3.32593 0
19.9404 3.44367 0
19.9125 3.34896 0
23.4682 4.7151 0
23.4878 4.77757 0
16.6686 1.62771 0
16.6963 1.77275 0
16.591 1.75275 0
16.5633 1.60771 0
16.6298 1.69023 0
20.0995 3.22704 0
20.1457 3.09831 0
25.6854 2.87103 0
25.5034 3.06526 0
24.6261 5.20041 0
24.6391 5.32048 0
24.5834 5.25914 0
19.8879 3.88438 0
19.8346 3.90666 0
19.8439 3.86719 0
30.6964 6.54669 0
30.5861 6.51549 0
18.3917 2.99913 0
18.3478 2.98766 0
29.4815 3.04751 0
20.2816 3.93995 0
20.3401 3.88257 0
19.1535 2.28371 0
19.2305 2.52293 0
19.0894 2.45686 0
19.6077 2.02773 0
19.2973 1.93863 0
19.2753 1.51654 0
19.4415 1.77214 0
18.2628 2.86298 0
19.2596 2.83141 0
19.3043 2.68841 0
19.5105 2.73743 0
19.3851 2.78442 0
23.8446 4.94172 0
23.8115 4.9952 0
18.6233 2.97661 0
18.6938 2.92409 0
18.689 2.98774 0
16.2668 1.72742 0
16.227 1.73894 0
30.6098 7.74268 0
20.2258 3.94052 0
23.6539 4.43433 0
23.5586 4.45526 0
19.5569 3.50582 0
19.5932 3.5581 0
19.5524 3.54737 0
16.5251 1.75696 0
16.6032 1.81311 0
16.5373 1.81732 0
16.5641 1.78504 0
23.8882 4.4165 0
23.771 4.42542 0
30.5417 6.90667 0
32.5524 3.67318 0
32.7103 3.48895 0
32.6762 3.64054 0
24.7461 5.33164 0
24.7463 5.4989 0
24.6927 5.40969 0
24.0369 4.58284 0
23.9266 4.79879 0
23.9817 4.69082 0
21.4301 3.35843 0
24.258 5.38867 0
32.5902 3.40869 0
32.6951 3.34776 0
32.641 6.82481 0
32.3456 6.52925 0
19.8971 3.95666 0
19.8485 3.95333 0
30.8664 6.54497 0
19.1389 3.02089 0
19.1133 2.8467 0
19.1993 2.92615 0
19.7765 3.64061 0
19.8376 3.5991 0
19.8714 3.65318 0
19.824 3.64689 0
28.6049 5.75088 0
24.0366 4.42686 0
19.0514 3.24088 0
19.1511 3.22328 0
19.104 3.27343 0
24.9378 5.27084 0
25.1076 5.24977 0
21.8355 3.94094 0
23.3599 4.66279 0
23.4366 4.65176 0
16.6331 1.90127 0
16.6415 1.95064 0
18.4347 2.9608 0
23.8907 5.16441 0
23.8454 5.15721 0
17.7623 2.15215 0
17.7897 2.28714 0
17.8553 2.1998 0
16.7736 1.82169 0
16.6556 1.84455 0
16.7146 1.83312 0
18.4874 2.72166 0
18.441 2.78727 0
19.3339 3.32381 0
19.4249 3.358 0
19.3578 3.37113 0
23.4866 4.9634 0
23.4433 4.9567 0
22.2569 4.12111 0
19.5135 2.55216 0
19.4396 2.38668 0
19.372 2.53755 0
18.9214 1.8275 0
18.9265 1.51375 0
19.052 3.14877 0
19.0352 3.04578 0
19.1557 3.12388 0
19.0954 3.08483 0
19.6876 2.54198 0
19.5991 2.63971 0
17.7676 2.55586 0
17.8361 2.61 0
17.7506 2.61642 0
17.8019 2.58293 0
22.6854 4.53866 0
19.1162 3.41517 0
20.4542 4.13028 0
20.3771 4.10264 0
20.4957 2.49434 0
20.9783 2.50532 0
20.737 2.49983 0
18.7349 3.20112 0
18.7425 3.25056 0
18.4033 2.5979 0
18.5086 2.61112 0
19.0158 3.19927 0
17.8052 2.66855 0
17.8508 2.6555 0
32.6651 2.49723 0
32.6631 2.66975 0
23.8856 4.87026 0
24.2901 5.09789 0
24.2597 5.01231 0
23.1552 4.84974 0
20.1202 3.41048 0
20.1098 3.31876 0
17.6447 2.43502 0
17.5833 2.47458 0
17.5906 2.4271 0
17.543 2.50726 0
17.5099 2.50161 0
19.546 3.74548 0
23.5594 3.6402 0
23.5097 3.42601 0
17.8142 2.37856 0
17.7096 2.40991 0
17.7497 2.34853 0
18.924 2.87507 0
18.7846 2.84299 0
18.8543 2.85903 0
32.4626 2.12383 0
32.5532 2.37788 0
32.4126 2.31075 0
20.026 3.50743 0
19.9557 3.59246 0
19.8702 3.5287 0
19.9481 3.51806 0
24.7961 5.20516 0
24.7027 5.10286 0
31.4592 2.49965 0
31.4336 2.19863 0
20.2126 3.49281 0
20.1193 3.50012 0
26.3617 2.75066 0
26.5242 2.4637 0
26.6136 2.7015 0
20.3193 2.52313 0
23.5384 4.99642 0
23.5442 5.04821 0
19.2594 3.22516 0
19.3571 3.24387 0
19.2967 3.27449 0
23.9398 5.20542 0
23.9449 5.25271 0
16.8602 1.77261 0
16.92 1.84191 0
16.8334 1.89098 0
16.8468 1.8318 0
17.3308 1.39746 0
16.8243 1.5482 0
16.6356 1.35074 0
16.9832 1.3741 0
23.626 3.8251 0
24.2352 5.16086 0
24.3036 5.16997 0
19.2075 3.17452 0
17.6278 2.52982 0
17.6623 2.49382 0
17.6969 2.5515 0
17.6624 2.54066 0
24.8878 5.39733 0
24.8419 5.30124 0
28.124 3.0901 0
28.2708 3.38994 0
17.5854 2.51854 0
17.1637 1.94376 0
18.2396 2.62661 0
18.3088 2.53596 0
18.3215 2.61225 0
18.6787 2.01354 0
18.3355 2.12034 0
18.5071 2.06694 0
19.517 3.40837 0
19.5869 3.45642 0
19.537 3.45709 0
18.6812 3.16809 0
18.6406 3.15905 0
17.7526 2.65928 0
24.1955 5.19844 0
31.2653 2.80644 0
30.9805 2.91295 0
19.7556 3.56211 0
19.8129 3.5454 0
16.34 1.72775 0
16.4141 1.68544 0
16.4241 1.75768 0
16.3821 1.74272 0
22.5733 4.26473 0
22.6301 4.30876 0
16.5807 1.86983 0
16.5403 1.85992 0
32.486 3.49455 0
27.9702 2.79126 0
21.8549 2.56355 0
21.9574 2.16405 0
22.1055 2.41955 0
16.8902 1.94626 0
16.9456 1.89901 0
19.4711 3.28822 0
19.4355 3.21906 0
30.4534 8.38805 0
30.449 8.19393 0
30.5171 8.28155 0
30.3271 8.26182 0
30.351 8.38091 0
19.6976 3.58023 0
19.737 3.61042 0
16.8417 1.94549 0
19.9432 3.66363 0
18.2697 2.307 0
18.2124 2.19183 0
23.9351 5.15223 0
22.8077 3.9795 0
23.5741 4.92617 0
23.5304 4.94479 0
32.6881 2.20434 0
32.6766 2.35078 0
16.4783 1.5785 0
16.4992 1.71465 0
16.4887 1.64657 0
18.2051 2.68535 0
18.9932 2.95716 0
18.9687 3.02771 0
31.5198 2.76191 0
19.4941 3.34829 0
16.6181 1.85719 0
16.3336 1.63509 0
16.3002 1.68125 0
24.8392 5.59189 0
24.8635 5.49461 0
18.7223 3.15215 0
22.5731 4.17988 0
17.7272 2.46871 0
17.686 2.45187 0
18.6937 2.84046 0
21.5237 2.58254 0
21.7105 2.7625 0
19.0187 2.86088 0
26.0235 2.81084 0
23.2813 4.67071 0
23.3225 4.71173 0
19.6567 3.51579 0
19.6454 3.56916 0
30.3582 8.15789 0
20.4412 3.50688 0
20.3269 3.49984 0
19.6841 2.2282 0
19.3632 2.18621 0
19.5236 2.20721 0
32.5744 1.92213 0
32.6313 2.06323 0
17.8116 1.72939 0
17.6552 2.0459 0
17.7334 1.88765 0
17.7979 2.47307 0
17.7474 2.51229 0
21.3339 2.30623 0
21.251 2.54393 0
19.8135 2.38106 0
17.859 2.42693 0
26.6297 2.19465 0
16.4746 1.75732 0
17.5195 2.14184 0
17.4525 2.1897 0
32.5949 1.56053 0
32.5847 1.74133 0
21.6056 2.06191 0
21.8836 1.83217 0
21.3221 2.04698 0
16.8423 1.66041 0
18.1765 2.46104 0
18.2892 2.42148 0
19.0876 2.03613 0
18.8831 2.02483 0
18.0868 2.48244 0
19.2254 2.11117 0
19.6431 3.46057 0
19.9158 3.91909 0
20.5106 4.1823 0
23.2535 4.60399 0
23.2286 4.5373 0
23.224 4.65325 0
17.6002 1.45119 0
17.9242 1.4647 0
24.9252 5.70428 0
15.9863 1.3292 0
16.0617 1.45215 0
15.8754 1.39795 0
15.9308 1.36358 0
32.4738 1.38027 0
16.0621 1.47608 0
15.8564 1.44897 0
16.3745 1.47995 0
16.3109 1.33997 0
18.5753 2.98508 0
23.6278 4.92935 0
20.5913 3.56142 0
17.6409 2.14699 0
17.3824 1.57279 0
16.3541 1.55752 0
15.9753 1.48197 0
15.9253 1.48197 0
POLYGONS 2158 10790 
4 795 804 808 807 
4 804 621 805 808 
4 808 805 637 806 
4 807 808 806 442 
4 552 809 813 812 
4 809 545 810 813 
4 813 810 678 811 
4 812 813 811 488 
4 743 814 818 817 
4 814 529 815 818 
4 818 815 615 816 
4 817 818 816 578 
4 17 819 823 822 
4 819 374 820 823 
4 823 820 800 821 
4 822 823 821 588 
4 377 824 828 827 
4 824 547 825 828 
4 828 825 573 826 
4 827 828 826 784 
4 454 829 833 832 
4 829 453 830 833 
4 833 830 485 831 
4 832 833 831 672 
4 628 834 838 837 
4 834 752 835 838 
4 838 835 639 836 
4 837 838 836 544 
4 349 839 843 842 
4 839 623 840 843 
4 843 840 762 841 
4 842 843 841 591 
4 764 844 847 846 
4 844 544 845 847 
4 847 845 3 124 
4 846 847 124 125 
4 728 848 852 851 
4 848 655 849 852 
4 852 849 644 850 
4 851 852 850 592 
4 411 853 857 856 
4 853 417 854 857 
4 857 854 667 855 
4 856 857 855 570 
4 626 858 862 861 
4 858 511 859 862 
4 862 859 513 860 
4 861 862 860 640 
4 27 863 866 267 
4 863 654 864 866 
4 866 864 772 865 
4 267 866 865 266 
4 616 867 871 870 
4 867 567 868 871 
4 871 868 438 869 
4 870 871 869 614 
4 648 872 876 875 
4 872 647 873 876 
4 876 873 761 874 
4 875 876 874 373 
4 614 877 880 870 
4 877 613 878 880 
4 880 878 360 879 
4 870 880 879 616 
4 393 881 885 884 
4 881 579 882 885 
4 885 882 691 883 
4 884 885 883 408 
4 451 886 890 889 
4 886 736 887 890 
4 890 887 524 888 
4 889 890 888 449 
4 462 891 895 894 
4 891 464 892 895 
4 895 892 581 893 
4 894 895 893 597 
4 577 896 900 899 
4 896 391 897 900 
4 900 897 709 898 
4 899 900 898 601 
4 584 901 905 904 
4 901 562 902 905 
4 905 902 680 903 
4 904 905 903 460 
4 562 901 909 908 
4 901 584 906 909 
4 909 906 783 907 
4 908 909 907 558 
4 758 910 914 913 
4 910 588 911 914 
4 914 911 484 912 
4 913 914 912 554 
4 526 915 919 918 
4 915 777 916 919 
4 919 916 782 917 
4 918 919 917 692 
4 529 814 923 922 
4 814 743 920 923 
4 923 920 359 921 
4 922 923 921 625 
4 348 924 928 927 
4 924 602 925 928 
4 928 925 530 926 
4 927 928 926 603 
4 541 929 933 932 
4 929 605 930 933 
4 933 930 540 931 
4 932 933 931 565 
4 593 934 938 937 
4 934 523 935 938 
4 938 935 665 936 
4 937 938 936 728 
4 462 894 942 941 
4 894 597 939 942 
4 942 939 596 940 
4 941 942 940 794 
4 521 943 947 946 
4 943 522 944 947 
4 947 944 592 945 
4 946 947 945 591 
4 393 948 951 881 
4 948 394 949 951 
4 951 949 404 950 
4 881 951 950 579 
4 597 893 955 954 
4 893 581 952 955 
4 955 952 634 953 
4 954 955 953 388 
4 517 956 959 958 
4 956 520 957 959 
4 959 957 522 943 
4 958 959 943 521 
4 523 960 963 935 
4 960 586 961 963 
4 963 961 763 962 
4 935 963 962 665 
4 594 964 968 967 
4 964 704 965 968 
4 968 965 433 966 
4 967 968 966 536 
4 407 969 973 972 
4 969 430 970 973 
4 973 970 459 971 
4 972 973 971 440 
4 783 974 977 976 
4 974 396 975 977 
4 977 975 58 59 
4 976 977 59 60 
4 603 978 982 981 
4 978 726 979 982 
4 982 979 376 980 
4 981 982 980 720 
4 497 983 987 986 
4 983 551 984 987 
4 987 984 23 985 
4 986 987 985 399 
4 377 988 991 824 
4 988 632 989 991 
4 991 989 656 990 
4 824 991 990 547 
4 542 992 996 995 
4 992 566 993 996 
4 996 993 31 994 
4 995 996 994 356 
4 430 969 999 998 
4 969 407 997 999 
4 999 997 393 884 
4 998 999 884 408 
4 672 831 1003 1002 
4 831 485 1000 1003 
4 1003 1000 688 1001 
4 1002 1003 1001 569 
4 521 946 1006 1005 
4 946 591 841 1006 
4 1006 841 762 1004 
4 1005 1006 1004 590 
4 558 1007 1010 1009 
4 1007 62 63 1010 
4 1010 63 64 1008 
4 1009 1010 1008 382 
4 376 979 1014 1013 
4 979 726 1011 1014 
4 1014 1011 675 1012 
4 1013 1014 1012 674 
4 564 1015 1019 1018 
4 1015 504 1016 1019 
4 1019 1016 490 1017 
4 1018 1019 1017 708 
4 738 1020 1023 1022 
4 1020 155 1021 1023 
4 1023 1021 784 826 
4 1022 1023 826 573 
4 457 1024 1027 1026 
4 1024 458 1025 1027 
4 1027 1025 579 950 
4 1026 1027 950 404 
4 478 1028 1032 1031 
4 1028 505 1029 1032 
4 1032 1029 510 1030 
4 1031 1032 1030 458 
4 711 1033 1037 1036 
4 1033 506 1034 1037 
4 1037 1034 717 1035 
4 1036 1037 1035 556 
4 17 822 1039 207 
4 822 588 910 1039 
4 1039 910 758 1038 
4 207 1039 1038 206 
4 740 1040 1044 1043 
4 1040 555 1041 1044 
4 1044 1041 671 1042 
4 1043 1044 1042 686 
4 581 1045 1047 952 
4 1045 632 988 1047 
4 1047 988 377 1046 
4 952 1047 1046 634 
4 50 51 1051 1050 
4 51 52 1048 1051 
4 1051 1048 702 1049 
4 1050 1051 1049 474 
4 635 1052 1056 1055 
4 1052 619 1053 1056 
4 1056 1053 730 1054 
4 1055 1056 1054 387 
4 604 1057 1060 1059 
4 1057 505 1028 1060 
4 1060 1028 478 1058 
4 1059 1060 1058 602 
4 612 1061 1065 1064 
4 1061 611 1062 1065 
4 1065 1062 684 1063 
4 1064 1065 1063 538 
4 602 1058 1068 925 
4 1058 478 1066 1068 
4 1068 1066 479 1067 
4 925 1068 1067 530 
4 618 1069 1072 1071 
4 1069 512 1070 1072 
4 1072 1070 511 858 
4 1071 1072 858 626 
4 527 1073 1076 1075 
4 1073 459 970 1076 
4 1076 970 430 1074 
4 1075 1076 1074 469 
4 783 976 1077 907 
4 976 60 61 1077 
4 1077 61 62 1007 
4 907 1077 1007 558 
4 622 1078 1082 1081 
4 1078 617 1079 1082 
4 1082 1079 439 1080 
4 1081 1082 1080 487 
4 510 1029 1085 1084 
4 1029 505 1057 1085 
4 1085 1057 604 1083 
4 1084 1085 1083 577 
4 743 817 1088 1087 
4 817 578 1086 1088 
4 1088 1086 577 899 
4 1087 1088 899 601 
4 741 1089 1092 1091 
4 1089 536 1090 1092 
4 1092 1090 794 940 
4 1091 1092 940 596 
4 521 1093 1096 958 
4 1093 631 1094 1096 
4 1096 1094 496 1095 
4 958 1096 1095 517 
4 640 1097 1099 861 
4 1097 440 971 1099 
4 1099 971 459 1098 
4 861 1099 1098 626 
4 552 1100 1104 1103 
4 1100 734 1101 1104 
4 1104 1101 370 1102 
4 1103 1104 1102 489 
4 600 1105 1109 1108 
4 1105 731 1106 1109 
4 1109 1106 7 1107 
4 1108 1109 1107 380 
4 458 1030 1111 1025 
4 1030 510 1110 1111 
4 1111 1110 691 882 
4 1025 1111 882 579 
4 688 1112 1114 1001 
4 1112 56 57 1114 
4 1114 57 58 1113 
4 1001 1114 1113 569 
4 15 1115 1119 1118 
4 1115 467 1116 1119 
4 1119 1116 658 1117 
4 1118 1119 1117 525 
4 380 1120 1122 1108 
4 1120 407 972 1122 
4 1122 972 440 1121 
4 1108 1122 1121 600 
4 382 1008 1125 1124 
4 1008 64 65 1125 
4 1125 65 66 1123 
4 1124 1125 1123 580 
4 763 1126 1130 1129 
4 1126 664 1127 1130 
4 1130 1127 776 1128 
4 1129 1130 1128 385 
4 153 1131 1133 152 
4 1131 350 1132 1133 
4 1133 1132 380 1107 
4 152 1133 1107 7 
4 231 232 1137 1136 
4 232 233 1134 1137 
4 1137 1134 796 1135 
4 1136 1137 1135 493 
4 666 1138 1142 1141 
4 1138 739 1139 1142 
4 1142 1139 753 1140 
4 1141 1142 1140 447 
4 586 960 1146 1145 
4 960 523 1143 1146 
4 1146 1143 455 1144 
4 1145 1146 1144 452 
4 724 1147 1149 1148 
4 1147 702 1048 1149 
4 1149 1048 52 53 
4 1148 1149 53 54 
4 580 1123 1152 1151 
4 1123 66 67 1152 
4 1152 67 68 1150 
4 1151 1152 1150 384 
4 578 816 1155 1154 
4 816 615 1153 1155 
4 1155 1153 408 883 
4 1154 1155 883 691 
4 122 1156 1160 1159 
4 1156 371 1157 1160 
4 1160 1157 512 1158 
4 1159 1160 1158 652 
4 418 1161 1165 1164 
4 1161 419 1162 1165 
4 1165 1162 524 1163 
4 1164 1165 1163 719 
4 122 123 1168 1156 
4 123 3 1166 1168 
4 1168 1166 470 1167 
4 1156 1168 1167 371 
4 58 975 1170 1113 
4 975 396 1169 1170 
4 1170 1169 672 1002 
4 1113 1170 1002 569 
4 602 924 1173 1059 
4 924 348 1171 1173 
4 1173 1171 725 1172 
4 1059 1173 1172 604 
4 529 922 1177 1176 
4 922 625 1174 1177 
4 1177 1174 636 1175 
4 1176 1177 1175 528 
4 358 1178 1181 1180 
4 1178 595 1179 1181 
4 1181 1179 163 164 
4 1180 1181 164 165 
4 587 1182 1185 1184 
4 1182 390 1183 1185 
4 1185 1183 70 71 
4 1184 1185 71 72 
4 677 1186 1190 1189 
4 1186 432 1187 1190 
4 1190 1187 659 1188 
4 1189 1190 1188 599 
4 389 1191 1193 1192 
4 1191 587 1184 1193 
4 1193 1184 72 73 
4 1192 1193 73 74 
4 526 918 1197 1196 
4 918 692 1194 1197 
4 1197 1194 444 1195 
4 1196 1197 1195 645 
4 21 1198 1202 1201 
4 1198 378 1199 1202 
4 1202 1199 609 1200 
4 1201 1202 1200 553 
4 383 1203 1207 1206 
4 1203 589 1204 1207 
4 1207 1204 768 1205 
4 1206 1207 1205 585 
4 78 1208 1212 1211 
4 1208 557 1209 1212 
4 1212 1209 710 1210 
4 1211 1212 1210 676 
4 384 1150 1215 1214 
4 1150 68 69 1215 
4 1215 69 70 1213 
4 1214 1215 1213 598 
4 596 939 1218 1217 
4 939 597 954 1218 
4 1218 954 388 1216 
4 1217 1218 1216 595 
4 624 1219 1222 1221 
4 1219 573 825 1222 
4 1222 825 547 1220 
4 1221 1222 1220 481 
4 595 1216 1224 1179 
4 1216 388 1223 1224 
4 1224 1223 161 162 
4 1179 1224 162 163 
4 511 1225 1228 859 
4 1225 470 1226 1228 
4 1228 1226 639 1227 
4 859 1228 1227 513 
4 591 945 1230 842 
4 945 592 850 1230 
4 1230 850 644 1229 
4 842 1230 1229 349 
4 466 1231 1235 1234 
4 1231 659 1232 1235 
4 1235 1232 365 1233 
4 1234 1235 1233 363 
4 715 1236 1240 1239 
4 1236 582 1237 1240 
4 1240 1237 741 1238 
4 1239 1240 1238 358 
4 610 1241 1245 1244 
4 1241 699 1242 1245 
4 1245 1242 698 1243 
4 1244 1245 1243 719 
4 458 1024 1247 1031 
4 1024 457 1246 1247 
4 1247 1246 479 1066 
4 1031 1247 1066 478 
4 571 1248 1251 1250 
4 1248 390 1182 1251 
4 1251 1182 587 1249 
4 1250 1251 1249 751 
4 650 1252 1256 1255 
4 1252 518 1253 1256 
4 1256 1253 757 1254 
4 1255 1256 1254 563 
4 558 1009 1259 908 
4 1009 382 1257 1259 
4 1259 1257 716 1258 
4 908 1259 1258 562 
4 454 832 1262 1261 
4 832 672 1169 1262 
4 1262 1169 396 1260 
4 1261 1262 1260 693 
4 523 934 1266 1265 
4 934 593 1263 1266 
4 1266 1263 779 1264 
4 1265 1266 1264 535 
4 464 1267 1269 892 
4 1267 492 1268 1269 
4 1269 1268 632 1045 
4 892 1269 1045 581 
4 764 846 1272 1271 
4 846 125 126 1272 
4 1272 126 127 1270 
4 1271 1272 1270 486 
4 407 1120 1275 997 
4 1120 380 1273 1275 
4 1275 1273 381 1274 
4 997 1275 1274 393 
4 396 974 1277 1260 
4 974 783 906 1277 
4 1277 906 584 1276 
4 1260 1277 1276 693 
4 549 1278 1281 1280 
4 1278 141 142 1281 
4 1281 142 143 1279 
4 1280 1281 1279 620 
4 489 1282 1284 1103 
4 1282 718 1283 1284 
4 1284 1283 545 809 
4 1103 1284 809 552 
4 685 1285 1287 1286 
4 1285 600 1121 1287 
4 1287 1121 440 1097 
4 1286 1287 1097 640 
4 577 1083 1289 896 
4 1083 604 1172 1289 
4 1289 1172 725 1288 
4 896 1289 1288 391 
4 620 1279 1292 1291 
4 1279 143 144 1292 
4 1292 144 6 1290 
4 1291 1292 1290 431 
4 56 1293 1295 55 
4 1293 401 1294 1295 
4 1295 1294 724 1148 
4 55 1295 1148 54 
4 3 845 1296 1166 
4 845 544 836 1296 
4 1296 836 639 1226 
4 1166 1296 1226 470 
4 527 1297 1298 1073 
4 1297 618 1071 1298 
4 1298 1071 626 1098 
4 1073 1298 1098 459 
4 41 1299 1302 337 
4 1299 661 1300 1302 
4 1302 1300 759 1301 
4 337 1302 1301 336 
4 768 1204 1306 1305 
4 1204 589 1303 1306 
4 1306 1303 746 1304 
4 1305 1306 1304 480 
4 414 1307 1311 1310 
4 1307 610 1308 1311 
4 1311 1308 735 1309 
4 1310 1311 1309 443 
4 388 953 1313 1223 
4 953 634 1312 1313 
4 1313 1312 159 160 
4 1223 1313 160 161 
4 219 1314 1316 218 
4 1314 385 1128 1316 
4 1316 1128 776 1315 
4 218 1316 1315 19 
4 103 104 1319 1318 
4 104 105 1317 1319 
4 1319 1317 625 921 
4 1318 1319 921 359 
4 739 1320 1324 1323 
4 1320 406 1321 1324 
4 1324 1321 729 1322 
4 1323 1324 1322 566 
4 493 1325 1327 1136 
4 1325 623 1326 1327 
4 1327 1326 229 230 
4 1136 1327 230 231 
4 560 1328 1332 1331 
4 1328 744 1329 1332 
4 1332 1329 384 1330 
4 1331 1332 1330 737 
4 486 1270 1335 1334 
4 1270 127 128 1335 
4 1335 128 129 1333 
4 1334 1335 1333 637 
4 394 1336 1339 949 
4 1336 402 1337 1339 
4 1339 1337 456 1338 
4 949 1339 1338 404 
4 411 856 1343 1342 
4 856 570 1340 1343 
4 1343 1340 713 1341 
4 1342 1343 1341 364 
4 787 1344 1347 1346 
4 1344 627 1345 1347 
4 1347 1345 764 1271 
4 1346 1347 1271 486 
4 146 1348 1350 145 
4 1348 651 1349 1350 
4 1350 1349 431 1290 
4 145 1350 1290 6 
4 736 1351 1354 1353 
4 1351 454 1261 1354 
4 1354 1261 693 1352 
4 1353 1354 1352 583 
4 767 1355 1359 1358 
4 1355 568 1356 1359 
4 1359 1356 514 1357 
4 1358 1359 1357 677 
4 618 1297 1362 1361 
4 1297 527 1360 1362 
4 1362 1360 730 1053 
4 1361 1362 1053 619 
4 567 867 1365 1364 
4 867 616 1363 1365 
4 1365 1363 309 310 
4 1364 1365 310 311 
4 105 106 1367 1317 
4 106 107 1366 1367 
4 1367 1366 636 1174 
4 1317 1367 1174 625 
4 107 108 1370 1366 
4 108 109 1368 1370 
4 1370 1368 387 1369 
4 1366 1370 1369 636 
4 157 158 1372 1371 
4 158 159 1312 1372 
4 1372 1312 634 1046 
4 1371 1372 1046 377 
4 74 75 1375 1192 
4 75 76 1373 1375 
4 1375 1373 700 1374 
4 1192 1375 1374 389 
4 620 1291 1379 1378 
4 1291 431 1376 1379 
4 1379 1376 628 1377 
4 1378 1379 1377 627 
4 618 1380 1382 1069 
4 1380 653 1381 1382 
4 1382 1381 652 1158 
4 1069 1382 1158 512 
4 109 110 1384 1368 
4 110 111 1383 1384 
4 1384 1383 635 1055 
4 1368 1384 1055 387 
4 122 1159 1387 121 
4 1159 652 1385 1387 
4 1387 1385 473 1386 
4 121 1387 1386 120 
4 382 1124 1390 1257 
4 1124 580 1388 1390 
4 1390 1388 780 1389 
4 1257 1390 1389 716 
4 466 1391 1393 1231 
4 1391 658 1392 1393 
4 1393 1392 599 1188 
4 1231 1393 1188 659 
4 726 1394 1397 1011 
4 1394 531 1395 1397 
4 1397 1395 533 1396 
4 1011 1397 1396 675 
4 395 1398 1402 1401 
4 1398 481 1399 1402 
4 1402 1399 482 1400 
4 1401 1402 1400 403 
4 148 149 1406 1405 
4 149 150 1403 1406 
4 1406 1403 398 1404 
4 1405 1406 1404 629 
4 165 166 1408 1180 
4 166 167 1407 1408 
4 1408 1407 715 1239 
4 1180 1408 1239 358 
4 442 806 1411 1410 
4 806 637 1333 1411 
4 1411 1333 129 1409 
4 1410 1411 1409 721 
4 378 1412 1414 1199 
4 1412 590 1004 1414 
4 1414 1004 762 1413 
4 1199 1414 1413 609 
4 148 1415 1417 147 
4 1415 405 1416 1417 
4 1417 1416 651 1348 
4 147 1417 1348 146 
4 711 1418 1421 1033 
4 1418 428 1419 1421 
4 1421 1419 507 1420 
4 1033 1421 1420 506 
4 351 1422 1425 1424 
4 1422 630 1423 1425 
4 1425 1423 219 220 
4 1424 1425 220 221 
4 512 1157 1426 1070 
4 1157 371 1167 1426 
4 1426 1167 470 1225 
4 1070 1426 1225 511 
4 111 112 1429 1383 
4 112 113 1427 1429 
4 1429 1427 638 1428 
4 1383 1429 1428 635 
4 685 1430 1432 1285 
4 1430 398 1431 1432 
4 1432 1431 731 1105 
4 1285 1432 1105 600 
4 481 1398 1435 1221 
4 1398 395 1433 1435 
4 1435 1433 381 1434 
4 1221 1435 1434 624 
4 768 1436 1439 1205 
4 1436 500 1437 1439 
4 1439 1437 670 1438 
4 1205 1439 1438 585 
4 408 1153 1441 998 
4 1153 615 1440 1441 
4 1441 1440 469 1074 
4 998 1441 1074 430 
4 623 839 1443 1326 
4 839 349 1442 1443 
4 1443 1442 227 228 
4 1326 1443 228 229 
4 492 1267 1447 1446 
4 1267 464 1444 1447 
4 1447 1444 463 1445 
4 1446 1447 1445 465 
4 70 1183 1450 1213 
4 1183 390 1448 1450 
4 1450 1448 712 1449 
4 1213 1450 1449 598 
4 709 1451 1452 898 
4 1451 359 920 1452 
4 1452 920 743 1087 
4 898 1452 1087 601 
4 607 1453 1456 1455 
4 1453 241 242 1456 
4 1456 242 243 1454 
4 1455 1456 1454 797 
4 589 1203 1459 1458 
4 1203 383 1457 1459 
4 1459 1457 9 170 
4 1458 1459 170 171 
4 659 1187 1462 1232 
4 1187 432 1460 1462 
4 1462 1460 410 1461 
4 1232 1462 1461 365 
4 728 851 1464 937 
4 851 592 944 1464 
4 1464 944 522 1463 
4 937 1464 1463 593 
4 676 1465 1466 1211 
4 1465 700 1373 1466 
4 1466 1373 76 77 
4 1211 1466 77 78 
4 501 1467 1470 1469 
4 1467 483 1468 1470 
4 1470 1468 403 1400 
4 1469 1470 1400 482 
4 747 1471 1474 1473 
4 1471 474 1049 1474 
4 1474 1049 702 1472 
4 1473 1474 1472 706 
4 481 1220 1476 1399 
4 1220 547 990 1476 
4 1476 990 656 1475 
4 1399 1476 1475 482 
4 528 1477 1478 1176 
4 1477 469 1440 1478 
4 1478 1440 615 815 
4 1176 1478 815 529 
4 535 1264 1482 1481 
4 1264 779 1479 1482 
4 1482 1479 520 1480 
4 1481 1482 1480 543 
4 568 1483 1486 1356 
4 1483 416 1484 1486 
4 1486 1484 418 1485 
4 1356 1486 1485 514 
4 496 1094 1490 1489 
4 1094 631 1487 1490 
4 1490 1487 791 1488 
4 1489 1490 1488 494 
4 464 891 1493 1444 
4 891 462 1491 1493 
4 1493 1491 437 1492 
4 1444 1493 1492 463 
4 433 1494 1496 966 
4 1494 436 1495 1496 
4 1496 1495 794 1090 
4 966 1496 1090 536 
4 394 1497 1499 1336 
4 1497 395 1401 1499 
4 1499 1401 403 1498 
4 1336 1499 1498 402 
4 504 1015 1503 1502 
4 1015 564 1500 1503 
4 1503 1500 753 1501 
4 1502 1503 1501 565 
4 393 1274 1504 948 
4 1274 381 1433 1504 
4 1504 1433 395 1497 
4 948 1504 1497 394 
4 375 1505 1508 1507 
4 1505 373 874 1508 
4 1508 874 761 1506 
4 1507 1508 1506 714 
4 13 1509 1513 1512 
4 1509 362 1510 1513 
4 1513 1510 740 1511 
4 1512 1513 1511 476 
4 99 100 1516 1515 
4 100 101 1514 1516 
4 1516 1514 709 897 
4 1515 1516 897 391 
4 508 1517 1520 1519 
4 1517 742 1518 1520 
4 1520 1518 714 1506 
4 1519 1520 1506 761 
4 678 810 1524 1523 
4 810 545 1521 1524 
4 1524 1521 495 1522 
4 1523 1524 1522 425 
4 649 1525 1528 1527 
4 1525 466 1234 1528 
4 1528 1234 363 1526 
4 1527 1528 1526 361 
4 632 1268 1531 989 
4 1268 492 1529 1531 
4 1531 1529 705 1530 
4 989 1531 1530 656 
4 612 1064 1534 1533 
4 1064 538 1532 1534 
4 1534 1532 306 307 
4 1533 1534 307 35 
4 682 1535 1539 1538 
4 1535 683 1536 1539 
4 1539 1536 572 1537 
4 1538 1539 1537 751 
4 11 1540 1543 1542 
4 1540 409 1541 1543 
4 1543 1541 768 1305 
4 1542 1543 1305 480 
4 475 1544 1548 1547 
4 1544 559 1545 1548 
4 1548 1545 426 1546 
4 1547 1548 1546 646 
4 173 174 1551 1550 
4 174 10 175 1551 
4 1551 175 176 1549 
4 1550 1551 1549 746 
4 457 1552 1555 1246 
4 1552 681 1553 1555 
4 1555 1553 532 1554 
4 1246 1555 1554 479 
4 25 1556 1558 257 
4 1556 782 916 1558 
4 1558 916 777 1557 
4 257 1558 1557 256 
4 283 284 1561 1560 
4 284 30 285 1561 
4 1561 285 286 1559 
4 1560 1561 1559 729 
4 699 1241 1564 1563 
4 1241 610 1307 1564 
4 1564 1307 414 1562 
4 1563 1564 1562 412 
4 196 1565 1567 195 
4 1565 765 1566 1567 
4 1567 1566 193 194 
4 195 1567 194 14 
4 263 264 1569 1568 
4 264 26 265 1569 
4 1569 265 266 865 
4 1568 1569 865 772 
4 186 1570 1572 185 
4 1570 766 1571 1572 
4 1572 1571 183 184 
4 185 1572 184 12 
4 567 1573 1576 868 
4 1573 750 1574 1576 
4 1576 1574 316 1575 
4 868 1576 1575 438 
4 436 1577 1581 1580 
4 1577 434 1578 1581 
4 1581 1578 509 1579 
4 1580 1581 1579 437 
4 350 1582 1584 1583 
4 1582 738 1022 1584 
4 1584 1022 573 1219 
4 1583 1584 1219 624 
4 523 1265 1587 1143 
4 1265 535 1585 1587 
4 1587 1585 657 1586 
4 1143 1587 1586 455 
4 273 274 1590 1589 
4 274 28 275 1590 
4 1590 275 276 1588 
4 1589 1590 1588 770 
4 517 1591 1593 956 
4 1591 519 1592 1593 
4 1593 1592 543 1480 
4 956 1593 1480 520 
4 209 210 1596 1595 
4 210 211 1594 1596 
4 1596 1594 647 872 
4 1595 1596 872 648 
4 404 1338 1598 1026 
4 1338 456 1597 1598 
4 1598 1597 681 1552 
4 1026 1598 1552 457 
4 607 1599 1601 1453 
4 1599 733 1600 1601 
4 1601 1600 239 240 
4 1453 1601 240 241 
4 710 1602 1604 1210 
4 1602 675 1396 1604 
4 1604 1396 533 1603 
4 1210 1604 1603 676 
4 323 324 1607 1606 
4 324 38 325 1607 
4 1607 325 326 1605 
4 1606 1607 1605 774 
4 577 1086 1608 1084 
4 1086 578 1154 1608 
4 1608 1154 691 1110 
4 1084 1608 1110 510 
4 95 96 1611 1610 
4 96 97 1609 1611 
4 1611 1609 725 1171 
4 1610 1611 1171 348 
4 757 1612 1615 1254 
4 1612 548 1613 1615 
4 1615 1613 727 1614 
4 1254 1615 1614 563 
4 717 1034 1619 1618 
4 1034 506 1616 1619 
4 1619 1616 357 1617 
4 1618 1619 1617 355 
4 483 1620 1622 1468 
4 1620 572 1621 1622 
4 1622 1621 402 1498 
4 1468 1622 1498 403 
4 436 1494 1625 1577 
4 1494 433 1623 1625 
4 1625 1623 421 1624 
4 1577 1625 1624 434 
4 316 1574 1627 315 
4 1574 750 1626 1627 
4 1627 1626 313 314 
4 315 1627 314 36 
4 148 1405 1630 1415 
4 1405 629 1628 1630 
4 1630 1628 732 1629 
4 1415 1630 1629 405 
4 460 1631 1634 1633 
4 1631 443 1309 1634 
4 1634 1309 735 1632 
4 1633 1634 1632 583 
4 444 1635 1638 1195 
4 1635 372 1636 1638 
4 1638 1636 249 1637 
4 1195 1638 1637 645 
4 225 226 1640 1639 
4 226 227 1442 1640 
4 1640 1442 349 1229 
4 1639 1640 1229 644 
4 497 1641 1645 1644 
4 1641 793 1642 1645 
4 1645 1642 641 1643 
4 1644 1645 1643 608 
4 450 1646 1648 1647 
4 1646 664 1126 1648 
4 1648 1126 763 961 
4 1647 1648 961 586 
4 375 1507 1652 1651 
4 1507 714 1649 1652 
4 1652 1649 448 1650 
4 1651 1652 1650 419 
4 118 1653 1655 117 
4 1653 769 1654 1655 
4 1655 1654 115 116 
4 117 1655 116 2 
4 35 308 1657 1656 
4 308 309 1363 1657 
4 1657 1363 616 879 
4 1656 1657 879 360 
4 359 1451 1658 1318 
4 1451 709 1514 1658 
4 1658 1514 101 102 
4 1318 1658 102 103 
4 497 1659 1661 983 
4 1659 607 1455 1661 
4 1661 1455 797 1660 
4 983 1661 1660 551 
4 530 1067 1664 1663 
4 1067 479 1554 1664 
4 1664 1554 532 1662 
4 1663 1664 1662 531 
4 650 1255 1668 1667 
4 1255 563 1665 1668 
4 1668 1665 369 1666 
4 1667 1668 1666 367 
4 792 1669 1672 1671 
4 1669 661 1299 1672 
4 1672 1299 41 1670 
4 1671 1672 1670 662 
4 19 1673 1676 217 
4 1673 472 1674 1676 
4 1676 1674 775 1675 
4 217 1676 1675 216 
4 316 317 1679 1575 
4 317 37 1677 1679 
4 1679 1677 439 1678 
4 1575 1679 1678 438 
4 216 1675 1681 215 
4 1675 775 1680 1681 
4 1681 1680 213 214 
4 215 1681 214 18 
4 120 1386 1683 119 
4 1386 473 1682 1683 
4 1683 1682 769 1653 
4 119 1683 1653 118 
4 171 172 1684 1458 
4 172 173 1550 1684 
4 1684 1550 746 1303 
4 1458 1684 1303 589 
4 421 1623 1687 1686 
4 1623 433 965 1687 
4 1687 965 704 1685 
4 1686 1687 1685 415 
4 594 967 1689 1688 
4 967 536 1089 1689 
4 1689 1089 741 1237 
4 1688 1689 1237 582 
4 544 844 1690 837 
4 844 764 1345 1690 
4 1690 1345 627 1377 
4 837 1690 1377 628 
4 384 1214 1692 1330 
4 1214 598 1449 1692 
4 1692 1449 712 1691 
4 1330 1692 1691 737 
4 263 1693 1695 262 
4 1693 475 1547 1695 
4 1695 1547 646 1694 
4 262 1695 1694 261 
4 465 1445 1699 1698 
4 1445 463 1696 1699 
4 1699 1696 687 1697 
4 1698 1699 1697 560 
4 565 931 1702 1502 
4 931 540 1700 1702 
4 1702 1700 539 1701 
4 1502 1702 1701 504 
4 475 1703 1706 1544 
4 1703 654 1704 1706 
4 1706 1704 745 1705 
4 1544 1706 1705 559 
4 17 208 1708 1707 
4 208 209 1595 1708 
4 1708 1595 648 875 
4 1707 1708 875 373 
4 13 188 1711 1710 
4 188 189 1709 1711 
4 1711 1709 649 1527 
4 1710 1711 1527 361 
4 443 1712 1715 1310 
4 1712 420 1713 1715 
4 1715 1713 415 1714 
4 1310 1715 1714 414 
4 249 250 1717 1637 
4 250 251 1716 1717 
4 1717 1716 526 1196 
4 1637 1717 1196 645 
4 293 294 1720 1719 
4 294 32 295 1720 
4 1720 295 296 1718 
4 1719 1720 1718 773 
4 189 190 1723 1709 
4 190 191 1721 1723 
4 1723 1721 689 1722 
4 1709 1723 1722 649 
4 139 1724 1726 138 
4 1724 798 1725 1726 
4 1726 1725 136 137 
4 138 1726 137 5 
4 586 1145 1729 1647 
4 1145 452 1727 1729 
4 1729 1727 451 1728 
4 1647 1729 1728 450 
4 390 1248 1732 1448 
4 1248 571 1730 1732 
4 1732 1730 788 1731 
4 1448 1732 1731 712 
4 141 1278 1734 140 
4 1278 549 1733 1734 
4 1734 1733 798 1724 
4 140 1734 1724 139 
4 469 1477 1736 1075 
4 1477 528 1735 1736 
4 1736 1735 730 1360 
4 1075 1736 1360 527 
4 223 224 1738 1737 
4 224 225 1639 1738 
4 1738 1639 644 849 
4 1737 1738 849 655 
4 575 1739 1743 1742 
4 1739 576 1740 1743 
4 1743 1740 722 1741 
4 1742 1743 1741 606 
4 269 270 1746 1745 
4 270 271 1744 1746 
4 1746 1744 518 1252 
4 1745 1746 1252 650 
4 667 854 1749 1748 
4 854 417 1747 1749 
4 1749 1747 704 964 
4 1748 1749 964 594 
4 435 1750 1753 1752 
4 1750 701 1751 1753 
4 1753 1751 306 1532 
4 1752 1753 1532 538 
4 379 1754 1758 1757 
4 1754 353 1755 1758 
4 1758 1755 733 1756 
4 1757 1758 1756 608 
4 707 1759 1762 1761 
4 1759 488 811 1762 
4 1762 811 678 1760 
4 1761 1762 1760 789 
4 496 1763 1765 1095 
4 1763 516 1764 1765 
4 1765 1764 519 1591 
4 1095 1765 1591 517 
4 289 290 1768 1767 
4 290 291 1766 1768 
4 1768 1766 556 1035 
4 1767 1768 1035 717 
4 450 1769 1771 1646 
4 1769 742 1770 1771 
4 1771 1770 776 1127 
4 1646 1771 1127 664 
4 492 1446 1774 1529 
4 1446 465 1772 1774 
4 1774 1772 561 1773 
4 1529 1774 1773 705 
4 306 1751 1776 305 
4 1751 701 1775 1776 
4 1776 1775 303 304 
4 305 1776 304 34 
4 603 926 1777 978 
4 926 530 1663 1777 
4 1777 1663 531 1394 
4 978 1777 1394 726 
4 624 1434 1778 1583 
4 1434 381 1273 1778 
4 1778 1273 380 1132 
4 1583 1778 1132 350 
4 249 1636 1780 248 
4 1636 372 1779 1780 
4 1780 1779 399 985 
4 248 1780 985 23 
4 434 1624 1784 1783 
4 1624 421 1781 1784 
4 1784 1781 680 1782 
4 1783 1784 1782 669 
4 482 1475 1786 1469 
4 1475 656 1530 1786 
4 1786 1530 705 1785 
4 1469 1786 1785 501 
4 749 1787 1790 1789 
4 1787 613 877 1790 
4 1790 877 614 1788 
4 1789 1790 1788 617 
4 402 1621 1792 1337 
4 1621 572 1536 1792 
4 1792 1536 683 1791 
4 1337 1792 1791 456 
4 713 1793 1795 1341 
4 1793 740 1510 1795 
4 1795 1510 362 1794 
4 1341 1795 1794 364 
4 31 288 1797 1796 
4 288 289 1767 1797 
4 1797 1767 717 1618 
4 1796 1797 1618 355 
4 221 222 1799 1424 
4 222 223 1737 1799 
4 1799 1737 655 1798 
4 1424 1799 1798 351 
4 391 1288 1800 1515 
4 1288 725 1609 1800 
4 1800 1609 97 98 
4 1515 1800 98 99 
4 736 886 1802 1351 
4 886 451 1801 1802 
4 1802 1801 453 829 
4 1351 1802 829 454 
4 463 1492 1804 1696 
4 1492 437 1579 1804 
4 1804 1579 509 1803 
4 1696 1804 1803 687 
4 608 1643 1807 1757 
4 1643 641 1805 1807 
4 1807 1805 537 1806 
4 1757 1807 1806 379 
4 291 292 1809 1766 
4 292 293 1719 1809 
4 1809 1719 773 1808 
4 1766 1809 1808 556 
4 129 130 1811 1409 
4 130 4 131 1811 
4 1811 131 132 1810 
4 1409 1811 1810 721 
4 415 1713 1813 1686 
4 1713 420 1812 1813 
4 1813 1812 680 1781 
4 1686 1813 1781 421 
4 752 1814 1816 835 
4 1814 732 1815 1816 
4 1816 1815 513 1227 
4 835 1816 1227 639 
4 587 1191 1818 1249 
4 1191 389 1817 1818 
4 1818 1817 682 1538 
4 1249 1818 1538 751 
4 716 1819 1820 1258 
4 1819 669 1782 1820 
4 1820 1782 680 902 
4 1258 1820 902 562 
4 761 873 1823 1822 
4 873 647 1821 1823 
4 1823 1821 775 1674 
4 1822 1823 1674 472 
4 256 1557 1825 255 
4 1557 777 1824 1825 
4 1825 1824 253 254 
4 255 1825 254 24 
4 618 1361 1828 1380 
4 1361 619 1826 1828 
4 1828 1826 760 1827 
4 1380 1828 1827 653 
4 740 1793 1831 1040 
4 1793 713 1829 1831 
4 1831 1829 499 1830 
4 1040 1831 1830 555 
4 682 1832 1833 1535 
4 1832 681 1597 1833 
4 1833 1597 456 1791 
4 1535 1833 1791 683 
4 319 320 1837 1836 
4 320 321 1834 1837 
4 1837 1834 477 1835 
4 1836 1837 1835 642 
4 261 1694 1839 260 
4 1694 646 1546 1839 
4 1839 1546 426 1838 
4 260 1839 1838 259 
4 595 1178 1840 1217 
4 1178 358 1238 1840 
4 1840 1238 741 1091 
4 1217 1840 1091 596 
4 134 1841 1842 133 
4 1841 442 1410 1842 
4 1842 1410 721 1810 
4 133 1842 1810 132 
4 652 1381 1844 1385 
4 1381 653 1827 1844 
4 1844 1827 760 1843 
4 1385 1844 1843 473 
4 15 198 1848 1847 
4 198 199 1845 1848 
4 1848 1845 673 1846 
4 1847 1848 1846 392 
4 448 1849 1850 1650 
4 1849 449 888 1850 
4 1850 888 524 1162 
4 1650 1850 1162 419 
4 233 234 1853 1852 
4 234 20 235 1853 
4 1853 235 236 1851 
4 1852 1853 1851 756 
4 179 180 1856 1855 
4 180 181 1854 1856 
4 1856 1854 686 1042 
4 1855 1856 1042 671 
4 554 912 1859 1858 
4 912 484 1857 1859 
4 1859 1857 392 1846 
4 1858 1859 1846 673 
4 700 1860 1862 1374 
4 1860 755 1861 1862 
4 1862 1861 682 1817 
4 1374 1862 1817 389 
4 350 1131 1863 1582 
4 1131 153 154 1863 
4 1863 154 155 1020 
4 1582 1863 1020 738 
4 455 1864 1865 1144 
4 1864 453 1801 1865 
4 1865 1801 451 1727 
4 1144 1865 1727 452 
4 279 1866 1869 278 
4 1866 352 1867 1869 
4 1869 1867 445 1868 
4 278 1869 1868 29 
4 27 268 1871 1870 
4 268 269 1745 1871 
4 1871 1745 650 1667 
4 1870 1871 1667 367 
4 351 1872 1874 1422 
4 1872 665 962 1874 
4 1874 962 763 1873 
4 1422 1874 1873 630 
4 448 1875 1876 1849 
4 1875 450 1728 1876 
4 1876 1728 451 889 
4 1849 1876 889 449 
4 417 1877 1879 1747 
4 1877 413 1878 1879 
4 1879 1878 415 1685 
4 1747 1879 1685 704 
4 769 1682 1882 1881 
4 1682 473 1843 1882 
4 1882 1843 760 1880 
4 1881 1882 1880 638 
4 311 312 1883 1364 
4 312 313 1626 1883 
4 1883 1626 750 1573 
4 1364 1883 1573 567 
4 495 1884 1888 1887 
4 1884 697 1885 1888 
4 1888 1885 747 1886 
4 1887 1888 1886 515 
4 495 1521 1890 1884 
4 1521 545 1283 1890 
4 1890 1283 718 1889 
4 1884 1890 1889 697 
4 460 1633 1891 904 
4 1633 583 1352 1891 
4 1891 1352 693 1276 
4 904 1891 1276 584 
4 443 1631 1892 1712 
4 1631 460 903 1892 
4 1892 903 680 1812 
4 1712 1892 1812 420 
4 620 1893 1895 1280 
4 1893 621 804 1895 
4 1895 804 795 1894 
4 1280 1895 1894 549 
4 453 1864 1897 830 
4 1864 455 1586 1897 
4 1897 1586 657 1896 
4 830 1897 1896 485 
4 703 1898 1901 1900 
4 1898 606 1741 1901 
4 1901 1741 722 1899 
4 1900 1901 1899 48 
4 498 1902 1905 1904 
4 1902 715 1407 1905 
4 1905 1407 167 1903 
4 1904 1905 1903 643 
4 667 1748 1908 1907 
4 1748 594 1688 1908 
4 1908 1688 582 1906 
4 1907 1908 1906 550 
4 785 1909 1913 1912 
4 1909 507 1910 1913 
4 1913 1910 574 1911 
4 1912 1913 1911 575 
4 431 1349 1915 1376 
4 1349 651 1914 1915 
4 1915 1914 752 834 
4 1376 1915 834 628 
4 724 1916 1918 1147 
4 1916 723 1917 1918 
4 1918 1917 706 1472 
4 1147 1918 1472 702 
4 29 1868 1922 1921 
4 1868 445 1919 1922 
4 1922 1919 757 1920 
4 1921 1922 1920 690 
4 570 855 1925 1924 
4 855 667 1923 1925 
4 1925 1923 670 1437 
4 1924 1925 1437 500 
4 415 1878 1927 1714 
4 1878 413 1926 1927 
4 1927 1926 412 1562 
4 1714 1927 1562 414 
4 281 1928 1930 280 
4 1928 666 1929 1930 
4 1930 1929 352 1866 
4 280 1930 1866 279 
4 17 1707 1932 819 
4 1707 373 1505 1932 
4 1932 1505 375 1931 
4 819 1932 1931 374 
4 609 1413 1934 1933 
4 1413 762 840 1934 
4 1934 840 623 1325 
4 1933 1934 1325 493 
4 259 1838 1937 258 
4 1838 426 1935 1937 
4 1937 1935 427 1936 
4 258 1937 1936 25 
4 497 1644 1938 1659 
4 1644 608 1756 1938 
4 1938 1756 733 1599 
4 1659 1938 1599 607 
4 465 1698 1940 1772 
4 1698 560 1331 1940 
4 1940 1331 737 1939 
4 1772 1940 1939 561 
4 553 1200 1942 1941 
4 1200 609 1933 1942 
4 1942 1933 493 1135 
4 1941 1942 1135 796 
4 486 1334 1944 1346 
4 1334 637 805 1944 
4 1944 805 621 1943 
4 1346 1944 1943 787 
4 199 200 1946 1845 
4 200 201 1945 1946 
4 1946 1945 554 1858 
4 1845 1946 1858 673 
4 387 1054 1947 1369 
4 1054 730 1735 1947 
4 1947 1735 528 1175 
4 1369 1947 1175 636 
4 427 1948 1950 1936 
4 1948 534 1949 1950 
4 1950 1949 782 1556 
4 1936 1950 1556 25 
4 437 1491 1951 1580 
4 1491 462 941 1951 
4 1951 941 794 1495 
4 1580 1951 1495 436 
4 483 1467 1954 1953 
4 1467 501 1952 1954 
4 1954 1952 788 1730 
4 1953 1954 1730 571 
4 568 1955 1957 1483 
4 1955 374 1931 1957 
4 1957 1931 375 1956 
4 1483 1957 1956 416 
4 418 1164 1959 1485 
4 1164 719 1243 1959 
4 1959 1243 698 1958 
4 1485 1959 1958 514 
4 11 178 1961 1960 
4 178 179 1855 1961 
4 1961 1855 671 1041 
4 1960 1961 1041 555 
4 15 1847 1964 1115 
4 1847 392 1962 1964 
4 1964 1962 468 1963 
4 1115 1964 1963 467 
4 590 1412 1967 1966 
4 1412 378 1965 1967 
4 1967 1965 379 1806 
4 1966 1967 1806 537 
4 678 1968 1971 1760 
4 1968 423 1969 1971 
4 1971 1969 748 1970 
4 1760 1971 1970 789 
4 417 853 1973 1877 
4 853 411 1972 1973 
4 1973 1972 412 1926 
4 1877 1973 1926 413 
4 516 1763 1976 1975 
4 1763 496 1974 1976 
4 1976 1974 495 1887 
4 1975 1976 1887 515 
4 150 151 1977 1403 
4 151 7 1106 1977 
4 1977 1106 731 1431 
4 1403 1977 1431 398 
4 418 1484 1978 1161 
4 1484 416 1956 1978 
4 1978 1956 375 1651 
4 1161 1978 1651 419 
4 206 1038 1980 205 
4 1038 758 1979 1980 
4 1980 1979 203 204 
4 205 1980 204 16 
4 336 1301 1982 335 
4 1301 759 1981 1982 
4 1982 1981 333 334 
4 335 1982 334 40 
4 89 90 1985 1984 
4 90 91 1983 1985 
4 1985 1983 720 980 
4 1984 1985 980 376 
4 678 1523 1988 1968 
4 1523 425 1986 1988 
4 1988 1986 424 1987 
4 1968 1988 1987 423 
4 658 1116 1990 1392 
4 1116 467 1963 1990 
4 1990 1963 468 1989 
4 1392 1990 1989 599 
4 771 1991 1995 1994 
4 1991 502 1992 1995 
4 1995 1992 778 1993 
4 1994 1995 1993 663 
4 496 1489 1997 1974 
4 1489 494 1996 1997 
4 1997 1996 425 1522 
4 1974 1997 1522 495 
4 434 1783 1999 1578 
4 1783 669 1819 1999 
4 1999 1819 716 1998 
4 1578 1999 1998 509 
4 383 1206 2002 2001 
4 1206 585 1438 2002 
4 2002 1438 670 2000 
4 2001 2002 2000 471 
4 23 984 2005 247 
4 984 551 2003 2005 
4 2005 2003 781 2004 
4 247 2005 2004 246 
4 398 1430 2007 1404 
4 1430 685 2006 2007 
4 2007 2006 732 1628 
4 1404 2007 1628 629 
4 281 282 2009 2008 
4 282 283 1560 2009 
4 2009 1560 729 1321 
4 2008 2009 1321 406 
4 483 1953 2010 1620 
4 1953 571 1250 2010 
4 2010 1250 751 1537 
4 1620 2010 1537 572 
4 21 2011 2012 1198 
4 2011 353 1754 2012 
4 2012 1754 379 1965 
4 1198 2012 1965 378 
4 490 1016 2015 2014 
4 1016 504 1701 2015 
4 2015 1701 539 2013 
4 2014 2015 2013 503 
4 50 1050 2019 2018 
4 1050 474 2016 2019 
4 2019 2016 754 2017 
4 2018 2019 2017 790 
4 31 993 2020 287 
4 993 566 1322 2020 
4 2020 1322 729 1559 
4 287 2020 1559 286 
4 718 1282 2024 2023 
4 1282 489 2021 2024 
4 2024 2021 490 2022 
4 2023 2024 2022 491 
4 13 1710 2026 1509 
4 1710 361 1526 2026 
4 2026 1526 363 2025 
4 1509 2026 2025 362 
4 757 1919 2029 1612 
4 1919 445 2027 2029 
4 2029 2027 447 2028 
4 1612 2029 2028 548 
4 331 332 2031 2030 
4 332 333 1981 2031 
4 2031 1981 759 1300 
4 2030 2031 1300 661 
4 620 1378 2032 1893 
4 1378 627 1344 2032 
4 2032 1344 787 1943 
4 1893 2032 1943 621 
4 21 238 2033 2011 
4 238 239 1600 2033 
4 2033 1600 733 1755 
4 2011 2033 1755 353 
4 432 1186 2035 2034 
4 1186 677 1357 2035 
4 2035 1357 514 1958 
4 2034 2035 1958 698 
4 782 1949 2038 917 
4 1949 534 2036 2038 
4 2038 2036 696 2037 
4 917 2038 2037 692 
4 39 2039 2042 2041 
4 2039 663 1993 2042 
4 2042 1993 778 2040 
4 2041 2042 2040 679 
4 410 1460 2044 2043 
4 1460 432 2034 2044 
4 2044 2034 698 1242 
4 2043 2044 1242 699 
4 732 1814 2045 1629 
4 1814 752 1914 2045 
4 2045 1914 651 1416 
4 1629 2045 1416 405 
4 348 2046 2048 1610 
4 2046 786 2047 2048 
4 2048 2047 93 94 
4 1610 2048 94 95 
4 9 1457 2051 2050 
4 1457 383 2001 2051 
4 2051 2001 471 2049 
4 2050 2051 2049 441 
4 365 1461 2054 2053 
4 1461 410 2052 2054 
4 2054 2052 411 1342 
4 2053 2054 1342 364 
4 593 1463 2055 1263 
4 1463 522 957 2055 
4 2055 957 520 1479 
4 1263 2055 1479 779 
4 11 1542 2056 177 
4 1542 480 1304 2056 
4 2056 1304 746 1549 
4 177 2056 1549 176 
4 91 92 2058 1983 
4 92 93 2047 2058 
4 2058 2047 786 2057 
4 1983 2058 2057 720 
4 113 114 2059 1427 
4 114 115 1654 2059 
4 2059 1654 769 1881 
4 1427 2059 1881 638 
4 619 1052 2060 1826 
4 1052 635 1428 2060 
4 2060 1428 638 1880 
4 1826 2060 1880 760 
4 243 244 2062 2061 
4 244 22 245 2062 
4 2062 245 246 2004 
4 2061 2062 2004 781 
4 640 860 2063 1286 
4 860 513 1815 2063 
4 2063 1815 732 2006 
4 1286 2063 2006 685 
4 490 2021 2066 2065 
4 2021 489 1102 2066 
4 2066 1102 370 2064 
4 2065 2066 2064 446 
4 372 2067 2070 1779 
4 2067 400 2068 2070 
4 2070 2068 422 2069 
4 1779 2070 2069 399 
4 155 156 2071 1021 
4 156 157 1371 2071 
4 2071 1371 377 827 
4 1021 2071 827 784 
4 411 2052 2072 1972 
4 2052 410 2043 2072 
4 2072 2043 699 1563 
4 1972 2072 1563 412 
4 27 2073 2075 863 
4 2073 368 2074 2075 
4 2075 2074 745 1704 
4 863 2075 1704 654 
4 715 1902 2077 1236 
4 1902 498 2076 2077 
4 2077 2076 550 1906 
4 1236 2077 1906 582 
4 655 848 2078 1798 
4 848 728 936 2078 
4 2078 936 665 1872 
4 1798 2078 1872 351 
4 599 1989 2080 1189 
4 1989 468 2079 2080 
4 2080 2079 767 1358 
4 1189 2080 1358 677 
4 321 322 2082 1834 
4 322 323 1606 2082 
4 2082 1606 774 2081 
4 1834 2082 2081 477 
4 281 2008 2083 1928 
4 2008 406 1320 2083 
4 2083 1320 739 1138 
4 1928 2083 1138 666 
4 13 1512 2085 187 
4 1512 476 2084 2085 
4 2085 2084 766 1570 
4 187 2085 1570 186 
4 611 2086 2088 2087 
4 2086 576 1739 2088 
4 2088 1739 575 1911 
4 2087 2088 1911 574 
4 502 2089 2091 1992 
4 2089 642 1835 2091 
4 2091 1835 477 2090 
4 1992 2091 2090 778 
4 566 992 2093 1323 
4 992 542 2092 2093 
4 2093 2092 753 1139 
4 1323 2093 1139 739 
4 559 2094 2096 1545 
4 2094 461 2095 2096 
4 2096 2095 427 1935 
4 1545 2096 1935 426 
4 15 1118 2098 197 
4 1118 525 2097 2098 
4 2098 2097 765 1565 
4 197 2098 1565 196 
4 219 1423 2099 1314 
4 1423 630 1873 2099 
4 2099 1873 763 1129 
4 1314 2099 1129 385 
4 668 2100 2102 2101 
4 2100 491 2022 2102 
4 2102 2022 490 2014 
4 2101 2102 2014 503 
4 48 49 2104 1900 
4 49 50 2018 2104 
4 2104 2018 790 2103 
4 1900 2104 2103 703 
4 368 2105 2108 2107 
4 2105 369 2106 2108 
4 2108 2106 446 2064 
4 2107 2108 2064 370 
4 668 2109 2110 2100 
4 2109 697 1889 2110 
4 2110 1889 718 2023 
4 2100 2110 2023 491 
4 33 2111 2114 2113 
4 2111 428 1418 2114 
4 2114 1418 711 2112 
4 2113 2114 2112 633 
4 211 212 2115 1594 
4 212 213 1680 2115 
4 2115 1680 775 1821 
4 1594 2115 1821 647 
4 654 1703 2116 864 
4 1703 475 1693 2116 
4 2116 1693 263 1568 
4 864 2116 1568 772 
4 21 1201 2118 237 
4 1201 553 2117 2118 
4 2118 2117 756 1851 
4 237 2118 1851 236 
4 519 1764 2121 2120 
4 1764 516 2119 2121 
4 2121 2119 706 1917 
4 2120 2121 1917 723 
4 271 272 2123 1744 
4 272 273 1589 2123 
4 2123 1589 770 2122 
4 1744 2123 2122 518 
4 541 932 2125 2124 
4 932 565 1501 2125 
4 2125 1501 753 2092 
4 2124 2125 2092 542 
4 27 1870 2126 2073 
4 1870 367 1666 2126 
4 2126 1666 369 2105 
4 2073 2126 2105 368 
4 773 2127 2128 1808 
4 2127 633 2112 2128 
4 2128 2112 711 1036 
4 1808 2128 1036 556 
4 87 88 2130 2129 
4 88 89 1984 2130 
4 2130 1984 376 1013 
4 2129 2130 1013 674 
4 365 2053 2131 1233 
4 2053 364 1794 2131 
4 2131 1794 362 2025 
4 1233 2131 2025 363 
4 500 2132 2133 1924 
4 2132 499 1829 2133 
4 2133 1829 713 1340 
4 1924 2133 1340 570 
4 201 202 2134 1945 
4 202 203 1979 2134 
4 2134 1979 758 913 
4 1945 2134 913 554 
4 425 1996 2136 1986 
4 1996 494 1488 2136 
4 2136 1488 791 2135 
4 1986 2136 2135 424 
4 538 1063 2139 1752 
4 1063 684 2137 2139 
4 2139 2137 695 2138 
4 1752 2139 2138 435 
4 301 302 2141 2140 
4 302 303 1775 2141 
4 2141 1775 701 1750 
4 2140 2141 1750 435 
4 251 252 2142 1716 
4 252 253 1824 2142 
4 2142 1824 777 915 
4 1716 2142 915 526 
4 524 887 2144 2143 
4 887 736 1353 2144 
4 2144 1353 583 1632 
4 2143 2144 1632 735 
4 684 1062 2147 2146 
4 1062 611 2087 2147 
4 2147 2087 574 2145 
4 2146 2147 2145 429 
4 564 1018 2150 2149 
4 1018 708 2148 2150 
4 2150 2148 727 1613 
4 2149 2150 1613 548 
4 710 2151 2153 1602 
4 2151 397 2152 2153 
4 2153 2152 674 1012 
4 1602 2153 1012 675 
4 423 1987 2157 2156 
4 1987 424 2154 2157 
4 2157 2154 793 2155 
4 2156 2157 2155 422 
4 471 2000 2159 2158 
4 2000 670 1923 2159 
4 2159 1923 667 1907 
4 2158 2159 1907 550 
4 676 1603 2161 1465 
4 1603 533 2160 2161 
4 2161 2160 755 1860 
4 1465 2161 1860 700 
4 791 2162 2163 2135 
4 2162 641 1642 2163 
4 2163 1642 793 2154 
4 2135 2163 2154 424 
4 560 1697 2166 1328 
4 1697 687 2164 2166 
4 2166 2164 780 2165 
4 1328 2166 2165 744 
4 516 1975 2167 2119 
4 1975 515 1886 2167 
4 2167 1886 747 1473 
4 2119 2167 1473 706 
4 191 192 2169 1721 
4 192 193 1566 2169 
4 2169 1566 765 2168 
4 1721 2169 2168 689 
4 461 2094 2172 2171 
4 2094 559 1705 2172 
4 2172 1705 745 2170 
4 2171 2172 2170 734 
4 181 182 2174 1854 
4 182 183 1571 2174 
4 2174 1571 766 2173 
4 1854 2174 2173 686 
4 642 2089 2178 2177 
4 2089 502 2175 2178 
4 2178 2175 487 2176 
4 2177 2178 2176 366 
4 46 2179 2182 45 
4 2179 622 2180 2182 
4 2182 2180 771 2181 
4 45 2182 2181 44 
4 610 1244 2183 1308 
4 1244 719 1163 2183 
4 2183 1163 524 2143 
4 1308 2183 2143 735 
4 768 1541 2185 1436 
4 1541 409 2184 2185 
4 2185 2184 499 2132 
4 1436 2185 2132 500 
4 734 2170 2186 1101 
4 2170 745 2074 2186 
4 2186 2074 368 2107 
4 1101 2186 2107 370 
4 33 298 2190 2189 
4 298 299 2187 2190 
4 2190 2187 695 2188 
4 2189 2190 2188 354 
4 550 2076 2192 2158 
4 2076 498 2191 2192 
4 2192 2191 441 2049 
4 2158 2192 2049 471 
4 501 1785 2194 1952 
4 1785 705 1773 2194 
4 2194 1773 561 2193 
4 1952 2194 2193 788 
4 299 300 2195 2187 
4 300 301 2140 2195 
4 2195 2140 435 2138 
4 2187 2195 2138 695 
4 617 1788 2196 1079 
4 1788 614 869 2196 
4 2196 869 438 1678 
4 1079 2196 1678 439 
4 542 995 2199 2124 
4 995 356 2197 2199 
4 2199 2197 357 2198 
4 2124 2199 2198 541 
4 703 2200 2202 1898 
4 2200 540 930 2202 
4 2202 930 605 2201 
4 1898 2202 2201 606 
4 427 2203 2205 1948 
4 2203 707 2204 2205 
4 2205 2204 696 2036 
4 1948 2205 2036 534 
4 29 1921 2207 277 
4 1921 690 2206 2207 
4 2207 2206 770 1588 
4 277 2207 1588 276 
4 33 2113 2208 297 
4 2113 633 2127 2208 
4 2208 2127 773 1718 
4 297 2208 1718 296 
4 11 1960 2209 1540 
4 1960 555 1830 2209 
4 2209 1830 499 2184 
4 1540 2209 2184 409 
4 681 1832 2211 1553 
4 1832 682 1861 2211 
4 2211 1861 755 2210 
4 1553 2211 2210 532 
4 422 2068 2213 2156 
4 2068 400 2212 2213 
4 2213 2212 748 1969 
4 2156 2213 1969 423 
4 331 2214 2217 330 
4 2214 386 2215 2217 
4 2217 2215 660 2216 
4 330 2217 2216 329 
4 19 2218 2219 1673 
4 2218 508 1519 2219 
4 2219 1519 761 1822 
4 1673 2219 1822 472 
4 39 2041 2221 327 
4 2041 679 2220 2221 
4 2221 2220 774 1605 
4 327 2221 1605 326 
4 348 927 2222 2046 
4 927 603 981 2222 
4 2222 981 720 2057 
4 2046 2222 2057 786 
4 737 1691 2223 1939 
4 1691 712 1731 2223 
4 2223 1731 788 2193 
4 1939 2223 2193 561 
4 485 1896 2226 1000 
4 1896 657 2224 2226 
4 2226 2224 799 2225 
4 1000 2226 2225 688 
4 37 2227 2228 1677 
4 2227 366 2176 2228 
4 2228 2176 487 1080 
4 1677 2228 1080 439 
4 488 2229 2230 812 
4 2229 461 2171 2230 
4 2230 2171 734 1100 
4 812 2230 1100 552 
4 134 2231 2233 1841 
4 2231 694 2232 2233 
4 2233 2232 795 807 
4 1841 2233 807 442 
4 134 135 2235 2231 
4 135 136 1725 2235 
4 2235 1725 798 2234 
4 2231 2235 2234 694 
4 372 1635 2237 2067 
4 1635 444 2236 2237 
4 2237 2236 748 2212 
4 2067 2237 2212 400 
4 37 318 2238 2227 
4 318 319 1836 2238 
4 2238 1836 642 2177 
4 2227 2238 2177 366 
4 399 2069 2239 986 
4 2069 422 2155 2239 
4 2239 2155 793 1641 
4 986 2239 1641 497 
4 785 1912 2241 2240 
4 1912 575 1742 2241 
4 2241 1742 606 2201 
4 2240 2241 2201 605 
4 740 1043 2242 1511 
4 1043 686 2173 2242 
4 2242 2173 766 2084 
4 1511 2242 2084 476 
4 450 1875 2243 1769 
4 1875 448 1649 2243 
4 2243 1649 714 1518 
4 1769 2243 1518 742 
4 658 2244 2245 1117 
4 2244 689 2168 2245 
4 2245 2168 765 2097 
4 1117 2245 2097 525 
4 85 86 2247 2246 
4 86 87 2129 2247 
4 2247 2129 674 2152 
4 2246 2247 2152 397 
4 660 2215 2250 2249 
4 2215 386 2248 2250 
4 2250 2248 771 1994 
4 2249 2250 1994 663 
4 31 1796 2251 994 
4 1796 355 1617 2251 
4 2251 1617 357 2197 
4 994 2251 2197 356 
4 563 1614 2253 1665 
4 1614 727 2252 2253 
4 2253 2252 446 2106 
4 1665 2253 2106 369 
4 531 1662 2254 1395 
4 1662 532 2210 2254 
4 2254 2210 755 2160 
4 1395 2254 2160 533 
4 461 2229 2255 2095 
4 2229 488 1759 2255 
4 2255 1759 707 2203 
4 2095 2255 2203 427 
4 778 2090 2256 2040 
4 2090 477 2081 2256 
4 2256 2081 774 2220 
4 2040 2256 2220 679 
4 331 2030 2258 2214 
4 2030 661 1669 2258 
4 2258 1669 792 2257 
4 2214 2258 2257 386 
4 498 1904 2260 2191 
4 1904 643 2259 2260 
4 2260 2259 9 2050 
4 2191 2260 2050 441 
4 757 1253 2261 1920 
4 1253 518 2122 2261 
4 2261 2122 770 2206 
4 1920 2261 2206 690 
4 742 1517 2262 1770 
4 1517 508 2218 2262 
4 2262 2218 19 1315 
4 1770 2262 1315 776 
4 695 2137 2264 2188 
4 2137 684 2146 2264 
4 2264 2146 429 2263 
4 2188 2264 2263 354 
4 548 2028 2265 2149 
4 2028 447 1140 2265 
4 2265 1140 753 1500 
4 2149 2265 1500 564 
4 535 1481 2267 1585 
4 1481 543 2266 2267 
4 2267 2266 799 2224 
4 1585 2267 2224 657 
4 490 2065 2268 1017 
4 2065 446 2252 2268 
4 2268 2252 727 2148 
4 1017 2268 2148 708 
4 687 1803 2269 2164 
4 1803 509 1998 2269 
4 2269 1998 716 1389 
4 2164 2269 1389 780 
4 392 1857 2271 1962 
4 1857 484 2270 2271 
4 2271 2270 767 2079 
4 1962 2271 2079 468 
4 692 2037 2273 1194 
4 2037 696 2272 2273 
4 2273 2272 748 2236 
4 1194 2273 2236 444 
4 798 1733 2274 2234 
4 1733 549 1894 2274 
4 2274 1894 795 2232 
4 2234 2274 2232 694 
4 631 2275 2276 1487 
4 2275 537 1805 2276 
4 2276 1805 641 2162 
4 1487 2276 2162 791 
4 474 2277 2279 2016 
4 2277 668 2101 2279 
4 2279 2101 503 2278 
4 2016 2279 2278 754 
4 83 84 2281 2280 
4 84 85 2246 2281 
4 2281 2246 397 2151 
4 2280 2281 2151 710 
4 613 1787 2284 2283 
4 1787 749 2282 2284 
4 2284 2282 722 1740 
4 2283 2284 1740 576 
4 33 2189 2286 2111 
4 2189 354 2263 2286 
4 2286 2263 429 2285 
4 2111 2286 2285 428 
4 519 2120 2288 1592 
4 2120 723 2287 2288 
4 2288 2287 799 2266 
4 1592 2288 2266 543 
4 474 1471 2289 2277 
4 1471 747 1885 2289 
4 2289 1885 697 2109 
4 2277 2289 2109 668 
4 507 1419 2290 1910 
4 1419 428 2285 2290 
4 2290 2285 429 2145 
4 1910 2290 2145 574 
4 384 1329 2291 1151 
4 1329 744 2165 2291 
4 2291 2165 780 1388 
4 1151 2291 1388 580 
4 329 2216 2292 328 
4 2216 660 2249 2292 
4 2292 2249 663 2039 
4 328 2292 2039 39 
4 35 1656 2294 1533 
4 1656 360 878 2294 
4 2294 878 613 2293 
4 1533 2294 2293 612 
4 81 82 2296 2295 
4 82 83 2280 2296 
4 2296 2280 710 1209 
4 2295 2296 1209 557 
4 56 1112 2298 1293 
4 1112 688 2225 2298 
4 2298 2225 799 2297 
4 1293 2298 2297 401 
4 724 1294 2299 1916 
4 1294 401 2297 2299 
4 2299 2297 799 2287 
4 1916 2299 2287 723 
4 771 2180 2300 1991 
4 2180 622 1081 2300 
4 2300 1081 487 2175 
4 1991 2300 2175 502 
4 605 929 2302 2240 
4 929 541 2198 2302 
4 2302 2198 357 2301 
4 2240 2302 2301 785 
4 540 2200 2304 1700 
4 2200 703 2103 2304 
4 2304 2103 790 2303 
4 1700 2304 2303 539 
4 506 1420 2305 1616 
4 1420 507 1909 2305 
4 2305 1909 785 2301 
4 1616 2305 2301 357 
4 503 2013 2306 2278 
4 2013 539 2303 2306 
4 2306 2303 790 2017 
4 2278 2306 2017 754 
4 707 1761 2307 2204 
4 1761 789 1970 2307 
4 2307 1970 748 2272 
4 2204 2307 2272 696 
4 551 1660 2308 2003 
4 1660 797 1454 2308 
4 2308 1454 243 2061 
4 2003 2308 2061 781 
4 553 1941 2309 2117 
4 1941 796 1134 2309 
4 2309 1134 233 1852 
4 2117 2309 1852 756 
4 374 1955 2311 820 
4 1955 568 1355 2311 
4 2311 1355 767 2310 
4 820 2311 2310 800 
4 588 821 2312 911 
4 821 800 2310 2312 
4 2312 2310 767 2270 
4 911 2312 2270 484 
4 48 1899 2314 47 
4 1899 722 2282 2314 
4 2314 2282 749 2313 
4 47 2314 2313 46 
4 9 2259 2315 169 
4 2259 643 1903 2315 
4 2315 1903 167 168 
4 169 2315 168 8 
4 346 347 2319 2318 
4 347 0 2316 2319 
4 2319 2316 662 2317 
4 2318 2319 2317 546 
4 78 79 2320 1208 
4 79 1 80 2320 
4 2320 80 81 2295 
4 1208 2320 2295 557 
4 339 801 2321 338 
4 801 546 2317 2321 
4 2321 2317 662 1670 
4 338 2321 1670 41 
4 343 344 2322 803 
4 344 42 345 2322 
4 2322 345 346 2318 
4 803 2322 2318 546 
4 0 43 2324 2316 
4 43 44 2181 2324 
4 2324 2181 771 2323 
4 2316 2324 2323 662 
4 445 1867 2325 2027 
4 1867 352 1929 2325 
4 2325 1929 666 1141 
4 2027 2325 1141 447 
4 658 1391 2326 2244 
4 1391 466 1525 2326 
4 2326 1525 649 1722 
4 2244 2326 1722 689 
4 537 2275 2327 1966 
4 2275 631 1093 2327 
4 2327 1093 521 1005 
4 1966 2327 1005 590 
4 611 1061 2328 2086 
4 1061 612 2293 2328 
4 2328 2293 613 2283 
4 2086 2328 2283 576 
4 46 2313 2329 2179 
4 2313 749 1789 2329 
4 2329 1789 617 1078 
4 2179 2329 1078 622 
4 771 2248 2330 2323 
4 2248 386 2257 2330 
4 2330 2257 792 1671 
4 2323 2330 1671 662 
4 546 801 2331 802 
4 801 339 340 2331 
4 802 2331 340 341 
4 341 342 2332 802 
4 342 343 803 2332 
4 802 2332 803 546 
CELL_DATA 2158
NORMALS cell_normals float
0 0 1
0 0 1
0 0 1
0 0 1
0 0 1
0 0 1
0 0 1
0 0 1
0 0 1
0 0 1
0 0 1
0 0 1
0 0 1
0 0 1
0 0 1
0 0 1
0 0 1
0 0 1
0 0 1
0 0 1
0 0 1
0 0 1
0 0 1
0 0 1
0 0 1
0 0 1
0 0 1
0 0 1
0 0 1
0 0 1
0 0 1
0 0 1
0 0 1
0 0 1
0 0 1
0 0 1
0 0 1
0 0 1
0 0 1
0 0 1
0 0 1
0 0 1
0 0 1
0 0 1
0 0 1
0 0 1
0 0 1
0 0 1
0 0 1
0 0 1
0 0 1
0 0 1
0 0 1
0 0 1
0 0 1
0 0 1
0 0 1
0 0 1
0 0 1
0 0 1
0 0 1
0 0 1
0 0 1
0 0 1
0 0 1
0 0 1
0 0 1
0 0 1
0 0 1
0 0 1
0 0 1
0 0 1
0 0 1
0 0 1
0 0 1
0 0 1
0 0 1
0 0 1
0 0 1
0 0 1
0 0 1
0 0 1
0 0 1
0 0 1
0 0 1
0 0 1
0 0 1
0 0 1
0 0 1
0 0 1
0 0 1
0 0 1
0 0 1
0 0 1
0 0 1
0 0 1
0 0 1
0 0 1
0 0 1
0 0 1
0 0 1
0 0 1
0 0 1
0 0 1
0 0 1
0 0 1
0 0 1
0 0 1
0 0 1
0 0 1
0 0 1
0 0 1
0 0 1
0 0 1
0 0 1
0 0 1
0 0 1
0 0 1
0 0 1
0 0 1
0 0 1
0 0 1
0 0 1
0 0 1
0 0 1
0 0 1
0 0 1
0 0 1
0 0 1
0 0 1
0 0 1
0 0 1
0 0 1
0 0 1
0 0 1
0 0 1
0 0 1
0 0 1
0 0 1
0 0 1
0 0 1
0 0 1
0 0 1
0 0 1
0 0 1
0 0 1
0 0 1
0 0 1
0 0 1
0 0 1
0 0 1
0 0 1
0 0 1
0 0 1
0 0 1
0 0 1
0 0 1
0 0 1
0 0 1
0 0 1
0 0 1
0 0 1
0 0 1
0 0 1
0 0 1
0 0 1
0 0 1
0 0 1
0 0 1
0 0 1
0 0 1
0 0 1
0 0 1
0 0 1
0 0 1
0 0 1
0 0 1
0 0 1
0 0 1
0 0 1
0 0 1
0 0 1
0 0 1
0 0 1
0 0 1
0 0 1
0 0 1
0 0 1
0 0 1
0 0 1
0 0 1
0 0 1
0 0 1
0 0 1
0 0 1
0 0 1
0 0 1
0 0 1
0 0 1
0 0 1
0 0 1
0 0 1
0 0 1
0 0 1
0 0 1
0 0 1
0 0 1
0 0 1
0 0 1
0 0 1
0 0 1
0 0 1
0 0 1
0 0 1
0 0 1
0 0 1
0 0 1
0 0 1
0 0 1
0 0 1
0 0 1
0 0 1
0 0 1
0 0 1
0 0 1
0 0 1
0 0 1
0 0 1
0 0 1
0 0 1
0 0 1
0 0 1
0 0 1
0 0 1
0 0 1
0 0 1
0 0 1
0 0 1
0 0 1
0 0 1
0 0 1
0 0 1
0 0 1
0 0 1
0 0 1
0 0 1
0 0 1
0 0 1
0 0 1
0 0 1
0 0 1
0 0 1
0 0 1
0 0 1
0 0 1
0 0 1
0 0 1
0 0 1
0 0 1
0 0 1
0 0 1
0 0 1
0 0 1
0 0 1
0 0 1
0 0 1
0 0 1
0 0 1
0 0 1
0 0 1
0 0 1
0 0 1
0 0 1
0 0 1
0 0 1
0 0 1
0 0 1
0 0 1
0 0 1
0 0 1
0 0 1
0 0 1
0 0 1
0 0 1
0 0 1
0 0 1
0 0 1
0 0 1
0 0 1
0 0 1
0 0 1
0 0 1
0 0 1
0 0 1
0 0 1
0 0 1
0 0 1
0 0 1
0 0 1
0 0 1
0 0 1
0 0 1
0 0 1
0 0 1
0 0 1
0 0 1
0 0 1
0 0 1
0 0 1
0 0 1
0 0 1
0 0 1
0 0 1
0 0 1
0 0 1
0 0 1
0 0 1
0 0 1
0 0 1
0 0 1
0 0 1
0 0 1
0 0 1
0 0 1
0 0 1
0 0 1
0 0 1
0 0 1
0 0 1
0 0 1
0 0 1
0 0 1
0 0 1
0 0 1
0 0 1
0 0 1
0 0 1
0 0 1
0 0 1
0 0 1
0 0 1
0 0 1
0 0 1
0 0 1
0 0 1
0 0 1
0 0 1
0 0 1
0 0 1
0 0 1
0 0 1
0 0 1
0 0 1
0 0 1
0 0 1
0 0 1
0 0 1
0 0 1
0 0 1
0 0 1
0 0 1
0 0 1
0 0 1
0 0 1
0 0 1
0 0 1
0 0 1
0 0 1
0 0 1
0 0 1
0 0 1
0 0 1
0 0 1
0 0 1
0 0 1
0 0 1
0 0 1
0 0 1
0 0 1
0 0 1
0 0 1
0 0 1
0 0 1
0 0 1
0 0 1
0 0 1
0 0 1
0 0 1
0 0 1
0 0 1
0 0 1
0 0 1
0 0 1
0 0 1
0 0 1
0 0 1
0 0 1
0 0 1
0 0 1
0 0 1
0 0 1
0 0 1
0 0 1
0 0 1
0 0 1
0 0 1
0 0 1
0 0 1
0 0 1
0 0 1
0 0 1
0 0 1
0 0 1
0 0 1
0 0 1
0 0 1
0 0 1
0 0 1
0 0 1
0 0 1
0 0 1
0 0 1
0 0 1
0 0 1
0 0 1
0 0 1
0 0 1
0 0 1
0 0 1
0 0 1
0 0 1
0 0 1
0 0 1
0 0 1
0 0 1
0 0 1
0 0 1
0 0 1
0 0 1
0 0 1
0 0 1
0 0 1
0 0 1
0 0 1
0 0 1
0 0 1
0 0 1
0 0 1
0 0 1
0 0 1
0 0 1
0 0 1
0 0 1
0 0 1
0 0 1
0 0 1
0 0 1
0 0 1
0 0 1
0 0 1
0 0 1
0 0 1
0 0 1
0 0 1
0 0 1
0 0 1
0 0 1
0 0 1
0 0 1
0 0 1
0 0 1
0 0 1
0 0 1
0 0 1
0 0 1
0 0 1
0 0 1
0 0 1
0 0 1
0 0 1
0 0 1
0 0 1
0 0 1
0 0 1
0 0 1
0 0 1
0 0 1
0 0 1
0 0 1
0 0 1
0 0 1
0 0 1
0 0 1
0 0 1
0 0 1
0 0 1
0 0 1
0 0 1
0 0 1
0 0 1
0 0 1
0 0 1
0 0 1
0 0 1
0 0 1
0 0 1
0 0 1
0 0 1
0 0 1
0 0 1
0 0 1
0 0 1
0 0 1
0 0 1
0 0 1
0 0 1
0 0 1
0 0 1
0 0 1
0 0 1
0 0 1
0 0 1
0 0 1
0 0 1
0 0 1
0 0 1
0 0 1
0 0 1
0 0 1
0 0 1
0 0 1
0 0 1
0 0 1
0 0 1
0 0 1
0 0 1
0 0 1
0 0 1
0 0 1
0 0 1
0 0 1
0 0 1
0 0 1
0 0 1
0 0 1
0 0 1
0 0 1
0 0 1
0 0 1
0 0 1
0 0 1
0 0 1
0 0 1
0 0 1
0 0 1
0 0 1
0 0 1
0 0 1
0 0 1
0 0 1
0 0 1
0 0 1
0 0 1
0 0 1
0 0 1
0 0 1
0 0 1
0 0 1
0 0 1
0 0 1
0 0 1
0 0 1
0 0 1
0 0 1
0 0 1
0 0 1
0 0 1
0 0 1
0 0 1
0 0 1
0 0 1
0 0 1
0 0 1
0 0 1
0 0 1
0 0 1
0 0 1
0 0 1
0 0 1
0 0 1
0 0 1
0 0 1
0 0 1
0 0 1
0 0 1
0 0 1
0 0 1
0 0 1
0 0 1
0 0 1
0 0 1
0 0 1
0 0 1
0 0 1
0 0 1
0 0 1
0 0 1
0 0 1
0 0 1
0 0 1
0 0 1
0 0 1
0 0 1
0 0 1
0 0 1
0 0 1
0 0 1
0 0 1
0 0 1
0 0 1
0 0 1
0 0 1
0 0 1
0 0 1
0 0 1
0 0 1
0 0 1
0 0 1
0 0 1
0 0 1
0 0 1
0 0 1
0 0 1
0 0 1
0 0 1
0 0 1
0 0 1
0 0 1
0 0 1
0 0 1
0 0 1
0 0 1
0 0 1
0 0 1
0 0 1
0 0 1
0 0 1
0 0 1
0 0 1
0 0 1
0 0 1
0 0 1
0 0 1
0 0 1
0 0 1
0 0 1
0 0 1
0 0 1
0 0 1
0 0 1
0 0 1
0 0 1
0 0 1
0 0 1
0 0 1
0 0 1
0 0 1
0 0 1
0 0 1
0 0 1
0 0 1
0 0 1
0 0 1
0 0 1
0 0 1
0 0 1
0 0 1
0 0 1
0 0 1
0 0 1
0 0 1
0 0 1
0 0 1
0 0 1
0 0 1
0 0 1
0 0 1
0 0 1
0 0 1
0 0 1
0 0 1
0 0 1
0 0 1
0 0 1
0 0 1
0 0 1
0 0 1
0 0 1
0 0 1
0 0 1
0 0 1
0 0 1
0 0 1
0 0 1
0 0 1
0 0 1
0 0 1
0 0 1
0 0 1
0 0 1
0 0 1
0 0 1
0 0 1
0 0 1
0 0 1
0 0 1
0 0 1
0 0 1
0 0 1
0 0 1
0 0 1
0 0 1
0 0 1
0 0 1
0 0 1
0 0 1
0 0 1
0 0 1
0 0 1
0 0 1
0 0 1
0 0 1
0 0 1
0 0 1
0 0 1
0 0 1
0 0 1
0 0 1
0 0 1
0 0 1
0 0 1
0 0 1
0 0 1
0 0 1
0 0 1
0 0 1
0 0 1
0 0 1
0 0 1
0 0 1
0 0 1
0 0 1
0 0 1
0 0 1
0 0 1
0 0 1
0 0 1
0 0 1
0 0 1
0 0 1
0 0 1
0 0 1
0 0 1
0 0 1
0 0 1
0 0 1
0 0 1
0 0 1
0 0 1
0 0 1
0 0 1
0 0 1
0 0 1
0 0 1
0 0 1
0 0 1
0 0 1
0 0 1
0 0 1
0 0 1
0 0 1
0 0 1
0 0 1
0 0 1
0 0 1
0 0 1
0 0 1
0 0 1
0 0 1
0 0 1
0 0 1
0 0 1
0 0 1
0 0 1
0 0 1
0 0 1
0 0 1
0 0 1
0 0 1
0 0 1
0 0 1
0 0 1
0 0 1
0 0 1
0 0 1
0 0 1
0 0 1
0 0 1
0 0 1
0 0 1
0 0 1
0 0 1
0 0 1
0 0 1
0 0 1
0 0 1
0 0 1
0 0 1
0 0 1
0 0 1
0 0 1
0 0 1
0 0 1
0 0 1
0 0 1
0 0 1
0 0 1
0 0 1
0 0 1
0 0 1
0 0 1
0 0 1
0 0 1
0 0 1
0 0 1
0 0 1
0 0 1
0 0 1
0 0 1
0 0 1
0 0 1
0 0 1
0 0 1
0 0 1
0 0 1
0 0 1
0 0 1
0 0 1
0 0 1
0 0 1
0 0 1
0 0 1
0 0 1
0 0 1
0 0 1
0 0 1
0 0 1
0 0 1
0 0 1
0 0 1
0 0 1
0 0 1
0 0 1
0 0 1
0 0 1
0 0 1
0 0 1
0 0 1
0 0 1
0 0 1
0 0 1
0 0 1
0 0 1
0 0 1
0 0 1
0 0 1
0 0 1
0 0 1
0 0 1
0 0 1
0 0 1
0 0 1
0 0 1
0 0 1
0 0 1
0 0 1
0 0 1
0 0 1
0 0 1
0 0 1
0 0 1
0 0 1
0 0 1
0 0 1
0 0 1
0 0 1
0 0 1
0 0 1
0 0 1
0 0 1
0 0 1
0 0 1
0 0 1
0 0 1
0 0 1
0 0 1
0 0 1
0 0 1
0 0 1
0 0 1
0 0 1
0 0 1
0 0 1
0 0 1
0 0 1
0 0 1
0 0 1
0 0 1
0 0 1
0 0 1
0 0 1
0 0 1
0 0 1
0 0 1
0 0 1
0 0 1
0 0 1
0 0 1
0 0 1
0 0 1
0 0 1
0 0 1
0 0 1
0 0 1
0 0 1
0 0 1
0 0 1
0 0 1
0 0 1
0 0 1
0 0 1
0 0 1
0 0 1
0 0 1
0 0 1
0 0 1
0 0 1
0 0 1
0 0 1
0 0 1
0 0 1
0 0 1
0 0 1
0 0 1
0 0 1
0 0 1
0 0 1
0 0 1
0 0 1
0 0 1
0 0 1
0 0 1
0 0 1
0 0 1
0 0 1
0 0 1
0 0 1
0 0 1
0 0 1
0 0 1
0 0 1
0 0 1
0 0 1
0 0 1
0 0 1
0 0 1
0 0 1
0 0 1
0 0 1
0 0 1
0 0 1
0 0 1
0 0 1
0 0 1
0 0 1
0 0 1
0 0 1
0 0 1
0 0 1
0 0 1
0 0 1
0 0 1
0 0 1
0 0 1
0 0 1
0 0 1
0 0 1
0 0 1
0 0 1
0 0 1
0 0 1
0 0 1
0 0 1
0 0 1
0 0 1
0 0 1
0 0 1
0 0 1
0 0 1
0 0 1
0 0 1
0 0 1
0 0 1
0 0 1
0 0 1
0 0 1
0 0 1
0 0 1
0 0 1
0 0 1
0 0 1
0 0 1
0 0 1
0 0 1
0 0 1
0 0 1
0 0 1
0 0 1
0 0 1
0 0 1
0 0 1
0 0 1
0 0 1
0 0 1
0 0 1
0 0 1
0 0 1
0 0 1
0 0 1
0 0 1
0 0 1
0 0 1
0 0 1
0 0 1
0 0 1
0 0 1
0 0 1
0 0 1
0 0 1
0 0 1
0 0 1
0 0 1
0 0 1
0 0 1
0 0 1
0 0 1
0 0 1
0 0 1
0 0 1
0 0 1
0 0 1
0 0 1
0 0 1
0 0 1
0 0 1
0 0 1
0 0 1
0 0 1
0 0 1
0 0 1
0 0 1
0 0 1
0 0 1
0 0 1
0 0 1
0 0 1
0 0 1
0 0 1
0 0 1
0 0 1
0 0 1
0 0 1
0 0 1
0 0 1
0 0 1
0 0 1
0 0 1
0 0 1
0 0 1
0 0 1
0 0 1
0 0 1
0 0 1
0 0 1
0 0 1
0 0 1
0 0 1
0 0 1
0 0 1
0 0 1
0 0 1
0 0 1
0 0 1
0 0 1
0 0 1
0 0 1
0 0 1
0 0 1
0 0 1
0 0 1
0 0 1
0 0 1
0 0 1
0 0 1
0 0 1
0 0 1
0 0 1
0 0 1
0 0 1
0 0 1
0 0 1
0 0 1
0 0 1
0 0 1
0 0 1
0 0 1
0 0 1
0 0 1
0 0 1
0 0 1
0 0 1
0 0 1
0 0 1
0 0 1
0 0 1
0 0 1
0 0 1
0 0 1
0 0 1
0 0 1
0 0 1
0 0 1
0 0 1
0 0 1
0 0 1
0 0 1
0 0 1
0 0 1
0 0 1
0 0 1
0 0 1
0 0 1
0 0 1
0 0 1
0 0 1
0 0 1
0 0 1
0 0 1
0 0 1
0 0 1
0 0 1
0 0 1
0 0 1
0 0 1
0 0 1
0 0 1
0 0 1
0 0 1
0 0 1
0 0 1
0 0 1
0 0 1
0 0 1
0 0 1
0 0 1
0 0 1
0 0 1
0 0 1
0 0 1
0 0 1
0 0 1
0 0 1
0 0 1
0 0 1
0 0 1
0 0 1
0 0 1
0 0 1
0 0 1
0 0 1
0 0 1
0 0 1
0 0 1
0 0 1
0 0 1
0 0 1
0 0 1
0 0 1
0 0 1
0 0 1
0 0 1
0 0 1
0 0 1
0 0 1
0 0 1
0 0 1
0 0 1
0 0 1
0 0 1
0 0 1
0 0 1
0 0 1
0 0 1
0 0 1
0 0 1
0 0 1
0 0 1
0 0 1
0 0 1
0 0 1
0 0 1
0 0 1
0 0 1
0 0 1
0 0 1
0 0 1
0 0 1
0 0 1
0 0 1
0 0 1
0 0 1
0 0 1
0 0 1
0 0 1
0 0 1
0 0 1
0 0 1
0 0 1
0 0 1
0 0 1
0 0 1
0 0 1
0 0 1
0 0 1
0 0 1
0 0 1
0 0 1
0 0 1
0 0 1
0 0 1
0 0 1
0 0 1
0 0 1
0 0 1
0 0 1
0 0 1
0 0 1
0 0 1
0 0 1
0 0 1
0 0 1
0 0 1
0 0 1
0 0 1
0 0 1
0 0 1
0 0 1
0 0 1
0 0 1
0 0 1
0 0 1
0 0 1
0 0 1
0 0 1
0 0 1
0 0 1
0 0 1
0 0 1
0 0 1
0 0 1
0 0 1
0 0 1
0 0 1
0 0 1
0 0 1
0 0 1
0 0 1
0 0 1
0 0 1
0 0 1
0 0 1
0 0 1
0 0 1
0 0 1
0 0 1
0 0 1
0 0 1
0 0 1
0 0 1
0 0 1
0 0 1
0 0 1
0 0 1
0 0 1
0 0 1
0 0 1
0 0 1
0 0 1
0 0 1
0 0 1
0 0 1
0 0 1
0 0 1
0 0 1
0 0 1
0 0 1
0 0 1
0 0 1
0 0 1
0 0 1
0 0 1
0 0 1
0 0 1
0 0 1
0 0 1
0 0 1
0 0 1
0 0 1
0 0 1
0 0 1
0 0 1
0 0 1
0 0 1
0 0 1
0 0 1
0 0 1
0 0 1
0 0 1
0 0 1
0 0 1
0 0 1
0 0 1
0 0 1
0 0 1
0 0 1
0 0 1
0 0 1
0 0 1
0 0 1
0 0 1
0 0 1
0 0 1
0 0 1
0 0 1
0 0 1
0 0 1
0 0 1
0 0 1
0 0 1
0 0 1
0 0 1
0 0 1
0 0 1
0 0 1
0 0 1
0 0 1
0 0 1
0 0 1
0 0 1
0 0 1
0 0 1
0 0 1
0 0 1
0 0 1
0 0 1
0 0 1
0 0 1
0 0 1
0 0 1
0 0 1
0 0 1
0 0 1
0 0 1
0 0 1
0 0 1
0 0 1
0 0 1
0 0 1
0 0 1
0 0 1
0 0 1
0 0 1
0 0 1
0 0 1
0 0 1
0 0 1
0 0 1
0 0 1
0 0 1
0 0 1
0 0 1
0 0 1
0 0 1
0 0 1
0 0 1
0 0 1
0 0 1
0 0 1
0 0 1
0 0 1
0 0 1
0 0 1
0 0 1
0 0 1
0 0 1
0 0 1
0 0 1
0 0 1
0 0 1
0 0 1
0 0 1
0 0 1
0 0 1
0 0 1
0 0 1
0 0 1
0 0 1
0 0 1
0 0 1
0 0 1
0 0 1
0 0 1
0 0 1
0 0 1
0 0 1
0 0 1
0 0 1
0 0 1
0 0 1
0 0 1
0 0 1
0 0 1
0 0 1
0 0 1
0 0 1
0 0 1
0 0 1
0 0 1
0 0 1
0 0 1
0 0 1
0 0 1
0 0 1
0 0 1
0 0 1
0 0 1
0 0 1
0 0 1
0 0 1
0 0 1
0 0 1
0 0 1
0 0 1
0 0 1
0 0 1
0 0 1
0 0 1
0 0 1
0 0 1
0 0 1
0 0 1
0 0 1
0 0 1
0 0 1
0 0 1
0 0 1
0 0 1
0 0 1
0 0 1
0 0 1
0 0 1
0 0 1
0 0 1
0 0 1
0 0 1
0 0 1
0 0 1
0 0 1
0 0 1
0 0 1
0 0 1
0 0 1
0 0 1
0 0 1
0 0 1
0 0 1
0 0 1
0 0 1
0 0 1
0 0 1
0 0 1
0 0 1
0 0 1
0 0 1
0 0 1
0 0 1
0 0 1
0 0 1
0 0 1
0 0 1
0 0 1
0 0 1
0 0 1
0 0 1
0 0 1
0 0 1
0 0 1
0 0 1
0 0 1
0 0 1
0 0 1
0 0 1
0 0 1
0 0 1
0 0 1
0 0 1
0 0 1
0 0 1
0 0 1
0 0 1
0 0 1
0 0 1
0 0 1
0 0 1
0 0 1
0 0 1
0 0 1
0 0 1
0 0 1
0 0 1
0 0 1
0 0 1
0 0 1
0 0 1
0 0 1
0 0 1
0 0 1
0 0 1
0 0 1
0 0 1
0 0 1
0 0 1
0 0 1
0 0 1
0 0 1
0 0 1
0 0 1
0 0 1
0 0 1
0 0 1
0 0 1
0 0 1
0 0 1
0 0 1
0 0 1
0 0 1
0 0 1
0 0 1
0 0 1
0 0 1
0 0 1
0 0 1
0 0 1
0 0 1
0 0 1
0 0 1
0 0 1
0 0 1
0 0 1
0 0 1
0 0 1
0 0 1
0 0 1
0 0 1
0 0 1
0 0 1
0 0 1
0 0 1
0 0 1
0 0 1
0 0 1
0 0 1
0 0 1
0 0 1
0 0 1
0 0 1
0 0 1
0 0 1
0 0 1
0 0 1
0 0 1
0 0 1
0 0 1
0 0 1
0 0 1
0 0 1
0 0 1
0 0 1
0 0 1
0 0 1
0 0 1
0 0 1
0 0 1
0 0 1
0 0 1
0 0 1
0 0 1
0 0 1
0 0 1
0 0 1
0 0 1
0 0 1
0 0 1
0 0 1
0 0 1
0 0 1
0 0 1
0 0 1
0 0 1
0 0 1
0 0 1
0 0 1
0 0 1
0 0 1
0 0 1
0 0 1
0 0 1
0 0 1
0 0 1
0 0 1
0 0 1
0 0 1
0 0 1
0 0 1
0 0 1
0 0 1
0 0 1
0 0 1
0 0 1
0 0 1
0 0 1
0 0 1
0 0 1
0 0 1
0 0 1
0 0 1
0 0 1
0 0 1
0 0 1
0 0 1
0 0 1
0 0 1
0 0 1
0 0 1
0 0 1
0 0 1
0 0 1
0 0 1
0 0 1
0 0 1
0 0 1
0 0 1
0 0 1
0 0 1
0 0 1
0 0 1
0 0 1
0 0 1
0 0 1
0 0 1
0 0 1
0 0 1
0 0 1
0 0 1
0 0 1
0 0 1
0 0 1
0 0 1
0 0 1
0 0 1
0 0 1
0 0 1
0 0 1
0 0 1
0 0 1
0 0 1
0 0 1
0 0 1
0 0 1
0 0 1
0 0 1
0 0 1
0 0 1
0 0 1
0 0 1
0 0 1
0 0 1
0 0 1
0 0 1
0 0 1
0 0 1
0 0 1
0 0 1
0 0 1
0 0 1
0 0 1
0 0 1
0 0 1
0 0 1
0 0 1
0 0 1
0 0 1
0 0 1
0 0 1
0 0 1
0 0 1
0 0 1
0 0 1
0 0 1
0 0 1
0 0 1
0 0 1
0 0 1
0 0 1
0 0 1
0 0 1
0 0 1
0 0 1
0 0 1
0 0 1
0 0 1
0 0 1
0 0 1
0 0 1
0 0 1
0 0 1
0 0 1
0 0 1
0 0 1
0 0 1
0 0 1
0 0 1
0 0 1
0 0 1
0 0 1
0 0 1
0 0 1
0 0 1
0 0 1
0 0 1
0 0 1
0 0 1
0 0 1
0 0 1
0 0 1
0 0 1
0 0 1
0 0 1
0 0 1
0 0 1
0 0 1
0 0 1
0 0 1
0 0 1
0 0 1
0 0 1
0 0 1
0 0 1
0 0 1
0 0 1
0 0 1
0 0 1
0 0 1
0 0 1
0 0 1
0 0 1
0 0 1
0 0 1
0 0 1
0 0 1
0 0 1
0 0 1
0 0 1
0 0 1
0 0 1
0 0 1
0 0 1
0 0 1
0 0 1
0 0 1
0 0 1
0 0 1
0 0 1
0 0 1
0 0 1
0 0 1
0 0 1
0 0 1
0 0 1
0 0 1
0 0 1
0 0 1
0 0 1
0 0 1
0 0 1
0 0 1
0 0 1
0 0 1
0 0 1
0 0 1
0 0 1
0 0 1
0 0 1
0 0 1
0 0 1
0 0 1
0 0 1
0 0 1
0 0 1
0 0 1
0 0 1
0 0 1
0 0 1
0 0 1
0 0 1
0 0 1
0 0 1
0 0 1
0 0 1
0 0 1
0 0 1
0 0 1
0 0 1
0 0 1
0 0 1
0 0 1
0 0 1
0 0 1
0 0 1
0 0 1
0 0 1
0 0 1
0 0 1
0 0 1
0 0 1
0 0 1
0 0 1
0 0 1
0 0 1
0 0 1
0 0 1
0 0 1
0 0 1
0 0 1
0 0 1
0 0 1
0 0 1
0 0 1
0 0 1
0 0 1
0 0 1
0 0 1
0 0 1
0 0 1
0 0 1
0 0 1
0 0 1
0 0 1
0 0 1
0 0 1
0 0 1
0 0 1
0 0 1
0 0 1
0 0 1
0 0 1
0 0 1
0 0 1
0 0 1
0 0 1
0 0 1
0 0 1
0 0 1
0 0 1
0 0 1
0 0 1
0 0 1
0 0 1
0 0 1
0 0 1
0 0 1
0 0 1
0 0 1
0 0 1
0 0 1
0 0 1
0 0 1
0 0 1
0 0 1
0 0 1
0 0 1
0 0 1
0 0 1
0 0 1
0 0 1
0 0 1
0 0 1
0 0 1
0 0 1
0 0 1
0 0 1
0 0 1
0 0 1
0 0 1
0 0 1
0 0 1
0 0 1
0 0 1
0 0 1
0 0 1
0 0 1
0 0 1
0 0 1
0 0 1
0 0 1
0 0 1
0 0 1
0 0 1
0 0 1
0 0 1
0 0 1
0 0 1
0 0 1
0 0 1
0 0 1
0 0 1
0 0 1
0 0 1
0 0 1
0 0 1
0 0 1
0 0 1
0 0 1
0 0 1
0 0 1
0 0 1
0 0 1
0 0 1
0 0 1
0 0 1
0 0 1
0 0 1
0 0 1
0 0 1
0 0 1
0 0 1
0 0 1
0 0 1
0 0 1
0 0 1
0 0 1
0 0 1
0 0 1
0 0 1
0 0 1
0 0 1
0 0 1
0 0 1
0 0 1
0 0 1
0 0 1
0 0 1
0 0 1
0 0 1
0 0 1
0 0 1
0 0 1
0 0 1
0 0 1
0 0 1
0 0 1
0 0 1
0 0 1
0 0 1
0 0 1
0 0 1
0 0 1
0 0 1
0 0 1
0 0 1
0 0 1
0 0 1
0 0 1
0 0 1
0 0 1
0 0 1
0 0 1
0 0 1
0 0 1
0 0 1
0 0 1
0 0 1
0 0 1
0 0 1
0 0 1
0 0 1
0 0 1
0 0 1
0 0 1
0 0 1
0 0 1
0 0 1
0 0 1
0 0 1
0 0 1
0 0 1
0 0 1
0 0 1
0 0 1
0 0 1
0 0 1
0 0 1
0 0 1
0 0 1
0 0 1
0 0 1
0 0 1
0 0 1
0 0 1
0 0 1
0 0 1
0 0 1
0 0 1
0 0 1
0 0 1
0 0 1
0 0 1
0 0 1
0 0 1
0 0 1
0 0 1
0 0 1
0 0 1
0 0 1
0 0 1
0 0 1
0 0 1
0 0 1
0 0 1
0 0 1
0 0 1
0 0 1
0 0 1
0 0 1
0 0 1
0 0 1
0 0 1
0 0 1
0 0 1
0 0 1
0 0 1
0 0 1
0 0 1
0 0 1
0 0 1
0 0 1
0 0 1
0 0 1
0 0 1
0 0 1
0 0 1
0 0 1
0 0 1
0 0 1
0 0 1
0 0 1
0 0 1
0 0 1
0 0 1
0 0 1
0 0 1
0 0 1
0 0 1
0 0 1
0 0 1
0 0 1
0 0 1
0 0 1
0 0 1
0 0 1
0 0 1
0 0 1
0 0 1
0 0 1
0 0 1
0 0 1
0 0 1
0 0 1
0 0 1
0 0 1
0 0 1
0 0 1
0 0 1
0 0 1
0 0 1
0 0 1
0 0 1
0 0 1
0 0 1
0 0 1
0 0 1
0 0 1
0 0 1
0 0 1
0 0 1
0 0 1
0 0 1
0 0 1
0 0 1
0 0 1
0 0 1
0 0 1
0 0 1
0 0 1
0 0 1
0 0 1
0 0 1
0 0 1
0 0 1
0 0 1
0 0 1
0 0 1
0 0 1
0 0 1
0 0 1
0 0 1
0 0 1
0 0 1
0 0 1
0 0 1
0 0 1
0 0 1
0 0 1
0 0 1
0 0 1
0 0 1
0 0 1
0 0 1
POINT_DATA 2333
SCALARS x_displacement float 1
LOOKUP_TABLE default
0.684382
-0.0831208
2.5484
2.53964
2.85719
2.85724
2.53683
2.22463
3.29352
3.36204
3.41388
3.64219
3.73286
3.95001
4.05589
4.32846
4.4093
5.09788
5.3608
6.66133
12.7776
15.9108
27.9367
22.1746
29.8425
22.8106
31.4442
23.7879
31.898
23.5279
26.9289
20.98
28.759
20.6356
23.073
16.1966
22.2538
11.9955
18.7585
6.61838
5.80683
3.8002
3.97414
0
0
0
0
0
0
0
0
0
0
0
0
0
0
0
0
0
0
0
0
0
0
0
0
0
0
0
0
0
0
0
0
0
0
0
0
0
0.129911
0.264771
0.360656
0.445319
0.527236
0.60807
0.688252
0.767963
0.847281
0.925897
1.00376
1.08071
1.15651
1.23099
1.30386
1.37495
1.4443
1.51169
1.57714
1.64067
1.70228
1.76197
1.81974
1.8757
1.92995
1.98263
2.03386
2.08379
2.13259
2.18041
2.22744
2.27384
2.3198
2.36548
2.41106
2.45668
2.50247
2.5484
2.54828
2.54787
2.54704
2.54579
2.54413
2.54215
2.57804
2.61758
2.65736
2.69727
2.73723
2.77722
2.81721
2.8572
2.8572
2.85721
2.85722
2.85723
2.85724
2.85724
2.81724
2.77725
2.73726
2.69726
2.65723
2.61716
2.57703
2.49652
2.45613
2.41569
2.37528
2.33518
2.29572
2.2576
2.23639
2.25549
2.28216
2.31747
2.36113
2.41357
2.47373
2.54179
2.61696
2.69857
2.78552
2.87624
2.96861
3.05978
3.14552
3.21886
3.27444
3.31234
3.39362
3.4102
3.41723
3.41765
3.41505
3.44964
3.49015
3.54365
3.6867
3.71091
3.72524
3.7335
3.73663
3.73583
3.73371
3.76768
3.80712
3.85804
4.00215
4.02949
4.04674
4.05655
4.06026
4.05938
4.05688
4.10188
4.1532
4.21776
4.38485
4.41038
4.42134
4.42383
4.42035
4.41463
4.41041
4.51875
4.64385
4.80806
5.24737
5.32823
5.37102
5.38992
5.38932
5.37681
5.36452
5.54914
5.7659
6.06263
7.29998
7.76711
8.20232
8.62424
9.04383
9.46436
9.88676
10.3106
10.7339
11.153
11.5619
11.9507
12.3042
12.5999
12.7998
12.8545
12.8146
13.2132
13.705
14.4314
17.0819
17.9687
18.8122
19.6817
20.6443
21.9259
23.8869
22.2453
20.8591
20.6632
21.8578
22.0818
22.4621
23.0572
23.9058
25.1467
27.0455
23.1399
21.7312
21.3096
22.4805
22.6935
23.1286
23.7389
24.5667
25.7804
27.8185
25.1429
23.5689
22.988
23.2209
23.2816
23.6264
24.191
25.0053
26.2263
28.2709
25.443
23.7385
22.8541
22.0462
21.6756
21.6731
21.9109
22.307
23.0409
24.3933
22.4388
21.242
20.5894
19.9764
19.8827
20.1464
20.6699
21.4577
22.6425
24.7033
22.7055
20.9664
20.1136
19.6063
19.1626
19.0439
19.1551
19.4726
20.0926
21.2315
18.7967
17.2461
16.3529
14.7437
14.4226
14.5521
15.0015
15.7636
16.965
19.0197
15.5271
13.4499
12.3139
10.7632
10.4562
10.5637
10.9896
11.7587
13.0088
15.1107
11.9893
9.8722
8.31515
6.04589
5.8034
5.74686
5.75228
5.75832
5.78178
5.80219
5.43837
5.0138
4.46175
3.81373
3.85067
3.88074
3.91823
3.95169
3.96945
3.9736
3.16782
2.34114
1.48838
1.39233
11.4498
2.17357
8.65321
21.4103
16.8683
18.0836
18.9102
18.2761
16.983
3.06983
1.89027
13.4134
4.05198
3.9997
4.10286
4.03075
4.18772
9.52553
21.9662
20.692
20.5119
18.6239
2.46317
20.5416
5.4985
5.12224
5.50344
0.953078
2.36961
15.1692
16.2895
2.13391
1.9857
1.04024
3.47267
0.784906
7.44087
5.25445
2.18942
2.69103
0.415854
0.653031
1.67136
4.49102
1.88804
1.68903
1.81983
2.57672
0.638562
2.29167
19.9532
19.5948
3.1432
1.47893
1.62249
1.53102
2.41318
21.4586
2.07609
1.93613
3.67216
4.30095
4.02939
4.1452
3.91437
4.16599
3.74318
5.23138
3.80094
5.17669
5.5261
3.70946
3.26625
18.8491
18.0558
16.7599
15.5185
22.1474
20.7831
17.5955
16.6643
2.07023
2.54647
4.49739
3.24259
2.80577
18.4987
2.88039
2.518
11.9138
9.62119
2.19135
3.40379
2.78745
4.05968
20.8038
21.2235
18.2996
19.7792
5.9737
5.77737
6.53803
6.06729
6.7569
5.70537
4.66261
6.76938
1.32249
1.37768
1.54752
2.18817
3.70274
20.1063
2.61093
2.17616
2.33249
1.85527
4.19644
4.38966
4.5458
2.08362
2.46242
3.47686
6.01803
2.45723
6.49769
22.945
3.87436
9.73427
1.4464
1.26623
3.56001
1.95333
1.79023
1.37443
4.6223
4.97577
2.67725
7.83096
18.7043
16.4663
14.874
13.1688
2.06271
12.9983
14.6176
13.2667
12.5593
18.9271
3.34454
3.75254
3.6916
1.56946
7.11519
10.3325
13.8869
1.55693
17.7934
16.001
6.42281
2.34416
1.65419
2.38225
2.40498
2.37748
4.89134
10.8273
9.99475
10.9506
23.1662
8.92503
9.74233
12.4629
10.5246
8.01045
5.26046
4.24176
22.1586
2.19296
2.09268
1.98838
1.20725
0.977101
1.03301
0.709889
20.835
7.99143
3.18074
15.2991
16.5541
10.1735
10.6234
15.2386
17.8354
8.18096
2.54004
15.6603
3.35229
2.11995
19.1003
2.72291
3.43518
20.211
17.5818
13.9488
4.51439
3.75405
20.0993
0.273766
1.35153
21.5318
1.58008
1.55407
2.41196
20.7199
16.857
14.2561
19.8568
14.123
5.02502
2.54128
3.80968
1.05849
1.22719
2.18244
14.5421
11.9112
10.6456
1.71515
1.84873
1.68981
0.827471
2.4416
3.30733
4.35245
2.9882
3.55053
7.2527
0.493809
4.77091
3.47549
14.1278
11.9069
10.6326
9.28341
3.42436
2.88108
2.89045
2.66075
0.585792
4.44868
2.21298
1.80245
1.39809
1.17321
1.55195
12.134
8.83353
19.2702
17.3861
13.8694
4.57597
13.866
14.1681
11.0331
11.0134
1.96709
13.5534
7.71943
2.31303
2.28969
2.64122
2.69998
4.95277
12.3307
2.07542
1.99068
2.29242
2.61612
2.54404
2.34304
8.07238
14.1017
2.22321
19.6191
2.51277
2.28185
2.09081
2.73428
2.37089
2.46159
2.28839
16.5132
9.55159
3.30753
10.4784
21.7263
23.036
5.58125
5.45332
4.09038
22.4594
2.46731
2.43874
2.37832
22.5542
9.52014
1.99696
6.45101
4.27919
4.33129
5.80947
5.0768
3.35772
5.96225
7.36699
8.49874
20.8939
3.62256
10.7324
2.68908
3.58674
3.74477
3.67181
4.46272
0.769547
0.739895
0.393562
4.64843
17.3488
7.9179
3.19686
1.15878
0.874447
1.15582
16.31
2.29021
3.77732
1.93152
3.39407
4.13055
22.5147
1.78691
20.9584
3.72394
2.79754
18.152
20.2358
11.7953
4.70639
4.44381
0.372414
19.1183
4.27692
6.32332
3.5548
1.80418
7.5332
19.5965
16.9271
1.78439
0.497659
18.6496
0.919816
3.87402
6.05203
3.227
1.95319
19.3449
14.2213
4.94965
1.15131
2.81025
6.38509
6.44009
3.43014
1.53559
0.963509
18.5962
9.47782
21.6297
2.19314
2.23986
2.37755
17.8596
19.3377
4.58982
5.11831
1.2412
2.2199
20.2092
3.88379
3.11124
6.57588
1.88039
1.3163
21.0619
3.48474
9.30157
19.4607
6.12388
15.1009
0.909274
2.46527
17.7594
7.36389
0.73792
13.5438
21.3144
4.57927
5.31541
2.37423
5.94938
13.0682
7.66247
2.61215
4.14873
3.80055
4.74641
3.59356
2.45871
23.7153
3.56164
23.8137
20.8853
9.99267
5.68955
7.06704
22.1381
7.31453
9.01509
1.50225
21.0787
21.0856
1.78975
2.27983
14.1778
1.26579
2.66401
1.28321
18.8653
5.72433
15.4602
4.81299
17.7317
2.89606
2.75372
13.2716
20.265
2.78993
5.47893
4.89421
3.6056
3.63267
3.65665
2.72685
2.71713
2.76087
2.77059
2.74386
16.5861
16.5436
18.0058
18.1673
17.3288
1.93526
1.97751
1.90899
1.86443
1.92194
5.11834
5.00993
4.83779
4.90643
4.97583
2.24767
2.15287
2.23159
2.32071
2.23831
5.16616
5.40026
4.297
4.23343
4.79507
2.50474
2.46335
2.50099
2.54197
2.50277
11.8959
12.673
12.4823
11.6736
12.175
2.57614
2.53965
2.61488
2.57723
9.51227
9.99477
10.5655
10.0382
10.0288
3.91898
3.71307
3.71612
3.91635
3.81692
2.33746
2.37986
2.3329
2.29036
2.33517
22.7044
23.0708
23.5569
22.9697
13.7875
12.9903
11.4914
12.3096
12.6763
5.51813
5.75902
5.70517
5.47631
5.61053
11.055
12.2095
13.4903
12.2834
1.79106
1.73844
1.86344
1.90982
1.82636
5.57701
5.23354
5.50996
5.93808
5.57513
2.46815
2.39361
2.54836
2.64031
2.51381
1.69307
1.72876
1.79343
1.75934
1.74402
2.6831
2.84808
3.4349
3.38585
3.10203
2.44319
1.5557
1.91419
2.16167
4.67174
4.69345
4.56673
4.54786
4.61854
22.2449
21.3631
20.9952
21.4862
21.4629
1.88529
1.9412
1.98947
1.93817
1.39482
1.30447
1.18976
1.28513
1.29442
13.6822
11.3582
12.4109
14.7414
13.0325
8.616
8.28895
8.9769
9.4094
8.82858
2.77338
2.89586
2.75084
2.76563
11.4349
10.617
11.2498
12.2548
11.3939
1.79172
1.60969
1.61197
1.70273
2.48217
2.59906
2.67833
2.57749
10.3423
10.1802
11.7953
10.9589
7.63056
7.48012
8.08068
7.88184
3.49113
3.40184
3.2159
3.30446
3.35594
2.0721
2.13008
2.18948
2.13436
2.13157
2.15688
1.44447
0.953958
1.17977
1.06978
0.958166
1.05328
1.16212
1.06141
19.603
20.6097
20.6734
19.4423
20.1907
2.30691
2.1082
2.0626
2.18498
18.8526
20.0572
19.3005
18.0518
19.1047
1.98599
2.00472
1.99359
4.25914
2.94965
3.15296
3.68224
13.6092
13.2992
12.9344
0.700598
0.527561
1.18418
0.60727
0.852699
0.755037
0.861699
0.857222
15.3409
14.4045
15.88
16.8908
15.6166
2.27197
2.30141
2.20194
2.25334
1.46433
1.61932
1.45413
1.53838
1.50249
1.60607
1.60144
1.4969
1.5522
18.2206
18.6157
19.6847
19.4053
19.0107
4.61069
4.74355
3.81481
3.74909
3.76141
3.82771
3.78682
2.32972
2.43734
2.39134
2.15433
5.31451
3.31729
2.69131
2.2858
2.24173
2.19127
2.23593
2.23884
1.55425
1.42181
1.47643
1.48911
14.0234
15.0508
16.4648
15.3129
15.2012
1.35813
1.23593
1.33069
2.3592
2.39357
2.3026
2.34827
2.19034
2.07642
2.13898
2.13416
0.81851
6.32368
8.6518
8.72794
6.34808
7.49049
1.63526
1.68448
1.62042
1.783
1.84191
1.81262
3.14634
3.0373
3.00005
3.02014
13.2996
13.4239
11.7652
12.6248
2.23993
2.24065
2.24016
18.4384
18.9962
17.5142
17.0499
17.9975
2.22669
2.23149
2.18261
2.17147
2.20264
1.72163
1.67082
1.82031
1.25228
1.51809
4.36045
4.33447
4.26442
4.27983
4.31225
2.10365
2.20226
2.15263
0.412229
0.925516
0.465114
7.51302
7.22593
7.24588
7.5628
7.39067
2.21798
2.15025
2.19674
13.0601
13.153
12.7452
12.9321
20.576
18.9659
18.7827
20.3391
19.6746
7.38004
6.78436
7.01393
7.20996
3.84157
1.71311
1.92948
0.387455
0.805034
0.399363
1.951
1.81763
1.88574
2.50335
2.43414
2.4218
2.49152
2.46269
5.35125
5.42498
5.12523
5.06966
5.25583
2.50138
2.46279
2.50229
3.09909
2.27154
1.46493
1.54355
1.47043
2.04141
2.09171
2.04128
2.04129
2.97524
2.87841
3.06045
2.96979
0.568598
0.345134
0.252403
0.295132
4.5732
4.4158
4.3899
4.54703
4.48169
0.451786
0.207551
0.228254
20.9055
21.2626
21.9558
21.4027
15.6591
14.5084
13.9771
14.6613
14.7395
3.47593
3.5294
3.57197
3.50994
3.52105
0.115638
0.390751
0.442352
0.189433
0.282525
0.281806
0.677979
0.330306
2.78436
2.88548
2.78
2.12763
2.03547
2.01746
2.08394
2.69783
2.78645
2.42241
2.46199
2.41958
2.42099
10.9619
11.1101
4.26434
4.25775
4.14723
4.14841
4.20425
3.26412
3.2101
3.0885
3.14892
3.17683
4.52299
4.57364
4.83649
4.76098
4.67822
1.32127
1.41086
0.863683
0.706418
0.979906
0.78075
22.8129
22.1865
21.0322
21.5914
21.922
1.51721
2.16529
1.7018
3.21407
4.17323
3.701
9.17391
8.49624
8.05798
8.59669
2.19418
2.15032
2.26906
2.68726
2.64467
2.65102
2.06354
1.93415
2.0227
3.3372
2.80676
2.71009
2.62919
2.68207
2.66966
15.3033
14.976
15.9766
2.25115
2.28932
2.2456
1.60465
1.61973
2.54164
2.59391
2.58546
1.49458
3.29012
1.60754
2.50111
2.25344
2.24688
4.4732
5.19991
5.1719
4.8528
3.48224
3.51884
3.57997
3.52666
4.36475
4.60724
4.31413
4.13248
4.36124
2.53286
2.6124
7.57712
6.9414
7.22938
1.98674
1.88308
1.93566
20.8404
21.5929
20.6491
20.0526
20.7925
12.6844
12.1064
12.4504
1.45589
1.04598
1.03123
1.4041
1.23781
2.75574
2.70576
2.72149
1.58746
1.39954
1.42938
1.50767
3.84445
3.95046
4.03894
3.93866
2.64007
2.61413
2.67064
2.64238
2.46171
2.50695
2.50173
4.93951
4.08626
4.7209
4.49589
4.88811
4.95983
4.77061
4.70065
4.8314
2.19296
2.3014
2.24757
14.2909
14.8385
14.4234
2.08738
2.03771
2.18498
2.14063
2.13668
2.397
2.46132
0.180615
0.391138
0.192561
2.54521
2.58013
2.62865
2.58698
2.34565
2.40857
2.38383
2.27789
2.23174
2.44799
2.50198
2.4968
1.17707
1.70824
1.33334
4.23708
4.36386
4.31366
0.969638
0.845648
0.724061
0.848452
1.88443
1.87594
1.70379
1.72534
1.79829
2.2936
2.31715
2.35914
2.32616
3.21703
3.14109
2.79373
2.79885
2.7773
14.6683
13.494
14.0818
2.39418
2.44025
2.42794
18.1234
16.783
16.9082
17.5062
8.36253
7.91696
8.63809
8.27939
2.42825
2.36822
2.32649
2.32318
2.29096
2.26519
2.25832
1.90641
2.02837
1.95974
3.64517
3.63821
3.57016
3.60696
2.02638
2.01497
11.2879
11.7063
2.26366
2.01069
1.96827
2.11181
0.780026
0.759412
0.543997
1.83815
1.83996
19.5323
21.0419
19.7669
20.2728
3.41541
3.43485
3.42544
4.39745
4.2487
4.33059
9.87869
9.99037
0.377364
0.180381
1.46842
1.5036
1.68566
1.5916
7.96899
5.93648
8.38046
6.89751
1.89137
1.9676
2.08796
2.03361
9.3746
8.98091
8.12036
8.751
5.13066
5.20984
5.03618
5.08684
14.7728
15.0543
13.562
14.2171
2.57304
2.34205
2.41411
3.06043
2.89502
3.05442
1.75275
1.54857
1.65449
17.2943
15.9758
14.0708
15.6536
1.84695
5.51367
6.03653
5.76341
5.75657
3.97799
3.94222
3.8818
3.90721
3.93054
1.77328
1.65612
1.71563
6.52362
6.30654
6.18071
6.27266
14.4017
14.4179
16.3943
15.4294
4.14124
4.0769
4.07127
4.10867
1.92998
1.9073
2.02616
16.9253
14.8846
15.882
1.01634
1.19008
1.07262
0.887772
1.04167
3.65933
3.63276
3.59518
3.61909
22.2234
21.8565
22.573
23.0333
22.4287
3.48816
3.44644
3.44871
1.27063
1.09434
1.15211
1.21027
21.4957
21.7916
21.2581
21.3956
22.6277
22.9977
4.16912
4.29097
4.3413
4.15209
4.09947
4.1014
25.0768
25.426
3.80476
3.76461
3.76674
14.5503
14.2161
12.6153
13.5311
2.85532
2.5698
2.44518
2.69541
2.64596
2.19528
2.1273
2.16318
7.20339
6.66365
7.34714
23.6193
25.1497
25.6006
9.96512
8.56867
9.47919
5.46921
5.37251
5.42664
1.23982
1.34945
18.5551
17.9086
18.7066
0.617833
0.554255
0.58485
9.82374
11.7634
12.1804
1.75219
1.52369
1.38358
1.4547
20.1711
18.8538
19.6272
19.9091
17.4018
17.9512
19.13
18.2942
1.29776
1.35708
1.4277
3.2637
3.03439
3.05819
16.2341
16.3569
2.36019
2.39533
2.37714
3.91078
4.50718
4.01295
4.1958
20.6917
21.4287
21.9666
21.3569
10.394
10.8422
18.3342
17.11
16.9662
18.1352
17.631
6.93977
6.89369
7.20834
6.0406
5.74597
5.54456
5.78603
2.50334
2.45774
2.50296
14.3328
14.3908
1.82904
19.087
20.2399
19.6522
1.00351
1.09431
1.12206
20.6368
21.2245
22.2159
21.4237
4.95199
3.59261
4.10897
4.2972
6.27126
5.84299
5.72831
5.96392
10.4787
10.749
11.5906
5.51982
5.53512
2.45803
2.50277
3.44299
3.65024
3.50631
3.46023
3.36465
3.25677
2.5781
1.0734
0.887238
24.1244
23.4217
23.8029
2.06776
1.74866
1.72972
1.89269
10.3965
11.9834
12.1966
22.7731
21.8278
21.3002
22.0263
5.30606
5.33362
4.05079
4.00452
4.02723
3.87957
3.74128
3.945
3.92902
22.764
22.3442
20.8546
22.004
22.693
4.08651
4.11188
4.0713
2.78359
2.82358
2.82041
6.40139
6.3269
6.66443
1.16613
1.11186
0.982235
2.75642
2.74684
2.14347
2.14108
9.49558
9.9432
11.2924
8.43205
7.62913
10.3191
9.39459
23.8778
23.0425
23.3972
3.68236
3.52948
3.60745
18.7927
18.2082
17.5133
17.8577
16.5914
17.3459
17.6435
16.8367
17.1055
19.1756
18.0993
19.2181
18.6193
11.2683
9.4623
10.6239
20.5634
19.7958
20.0868
6.59766
6.81894
6.9031
1.69963
1.68784
1.82386
19.8744
19.879
1.08148
2.09267
20.2477
21.131
3.25055
2.93248
2.75886
2.9982
1.68332
1.79365
8.49359
9.33094
6.9221
8.93062
1.24062
1.29735
3.88184
4.01771
3.94887
19.5679
19.7006
9.08389
9.06612
1.59097
5.9441
5.4257
2.12997
2.2502
15.9085
15.8149
16.3913
20.5143
21.1958
2.83373
2.82547
3.46281
3.50104
2.42142
2.37746
2.42042
0.648345
0.673755
2.33151
2.57476
5.64149
5.99745
5.81046
23.6524
23.6904
2.33206
2.3763
2.3389
3.81127
3.75369
3.81477
1.01906
1.13005
10.6622
9.62161
10.3051
10.3789
22.5188
22.9158
2.98633
2.82234
2.82803
2.41572
2.41216
4.43093
4.47636
4.412
4.42043
5.89108
5.65181
13.6219
13.1298
13.1817
3.75084
3.72314
3.73861
4.5537
4.48869
4.52028
0.556033
0.801717
0.597842
2.24235
6.22244
6.35016
21.6804
21.3169
21.9047
21.8536
22.5644
22.8322
8.58484
7.85732
8.22187
6.25658
6.11757
3.86005
3.8415
3.76315
2.3726
2.41477
2.4153
15.417
12.5872
10.4978
10.0878
12.0139
11.2932
12.9606
13.7273
3.71917
3.67628
2.67061
2.73832
2.70447
5.68622
6.01229
7.52654
2.9371
3.11485
5.23029
3.28608
3.25547
3.32524
3.26844
3.37405
3.52307
3.44826
15.081
15.2766
13.1926
13.0559
14.1463
2.46622
2.50578
4.94493
6.97629
5.42893
21.2944
21.9218
22.6768
22.0576
3.61103
3.75064
3.68031
4.02799
4.00004
21.5429
21.1376
21.5694
5.31515
5.31682
13.3875
13.0531
21.472
21.5258
22.1052
18.3598
1.40808
1.56309
13.5778
13.5172
2.68199
2.69388
4.46489
4.44984
2.14202
20.8857
20.9889
21.3989
2.73087
1.43396
1.22276
1.32425
5.07587
5.36445
5.2235
4.80044
4.94022
3.70272
3.71121
4.5194
4.46564
4.438
15.7619
14.7439
15.2708
17.7212
18.7474
19.1588
18.4296
4.09798
3.97883
12.9274
10.4075
11.6468
2.26133
5.37232
4.49271
4.50566
5.56748
5.50394
1.11598
0.939448
1.02845
16.1539
17.3913
16.9112
4.49827
4.4155
5.11722
7.25316
6.51519
4.80627
5.83297
15.0603
13.991
2.1847
2.47237
3.52919
3.47677
3.52138
20.5356
20.8565
20.5263
2.33366
2.32533
21.8707
22.2072
1.14407
16.5922
16.1928
10.2635
12.5222
12.2694
6.9175
6.56143
2.7152
4.86501
20.604
15.7131
14.0018
13.7094
14.6775
4.051
4.02754
20.4595
19.425
20.3087
5.5033
5.52537
2.65533
17.1983
4.60581
4.68906
20.5035
20.5618
20.7401
6.34126
7.57592
7.28994
6.83386
4.38027
4.49152
2.43078
1.32943
1.24847
1.31664
3.43872
3.38584
3.42867
4.15982
4.10715
4.1404
9.6605
3.53432
1.20915
1.18285
2.41295
2.32931
21.8411
22.4062
2.33328
18.4764
16.5355
17.0516
20.0479
19.2192
19.3733
19.7161
2.34535
4.2349
21.8472
20.8774
21.8861
3.38767
3.32734
9.04156
4.64109
4.59602
9.86859
11.1247
21.2638
3.83565
3.85101
12.2002
14.2157
12.7099
8.3378
8.50092
8.44248
17.8126
18.9213
20.8123
20.458
21.1527
4.19274
4.20977
7.7248
11.919
10.5501
12.2225
6.01593
2.90227
20.6098
19.3771
19.6283
19.5155
11.2924
12.4645
18.6273
19.1374
19.7562
18.9307
5.50067
23.6907
13.7707
14.1191
8.78149
7.6992
8.23482
23.4917
24.4689
16.5235
16.2545
21.5335
20.1489
19.7938
0.768902
0.854549
4.08128
3.72318
3.78274
4.48005
16.094
15.5928
17.2485
18.3023
17.4113
19.0632
19.3955
23.2424
4.91157
4.85627
15.5768
16.4904
15.3241
17.7458
17.9597
17.8536
0.570137
0.704193
0.662283
17.2546
18.2806
18.4521
17.8405
3.45928
3.53092
0.720746
0.550787
16.0099
16.618
1.73364
1.40493
1.58833
9.41518
4.1422
4.09546
20.1856
19.7416
20.5149
3.79064
3.75952
7.56641
8.6523
9.55022
8.55083
2.3595
4.24827
1.76994
2.07352
4.86059
3.71249
3.67917
19.9171
18.7922
18.1041
18.9225
18.8484
3.37464
3.41496
1.41355
1.55664
18.8487
10.0435
17.6156
16.0877
17.0645
8.43982
10.4875
9.42712
20.1715
19.9385
20.3806
22.9603
22.9038
20.1191
3.70688
0.88828
0.950793
19.5312
18.9835
5.59929
5.52856
5.95416
5.76036
6.53824
6.25278
8.84541
8.476
1.24714
1.25409
6.07085
4.36781
5.11783
10.3919
9.54174
19.3904
18.9367
2.82738
2.77563
2.79898
2.79373
2.82548
20.0977
20.0853
10.4127
18.8545
13.1312
11.7345
3.83371
6.31688
4.20069
4.19984
0.623511
0.696316
4.50049
5.89689
5.21442
18.568
18.4618
19.5198
0.864723
19.8063
8.65553
5.03002
5.29901
3.33462
3.35661
22.5997
6.72349
17.356
17.2986
18.3506
6.81965
7.08205
17.1385
1.94548
4.68891
4.59979
19.8429
20.3416
2.76603
14.7337
15.3682
8.52935
8.81255
8.67358
0.474784
0.54975
6.26363
10.8305
8.46528
17.1317
17.9872
5.94973
7.26436
9.56341
16.1815
1.10736
6.20433
12.5508
13.4593
0.279023
0.38097
4.36553
3.02036
4.65565
5.81935
15.6013
14.6168
7.86844
8.15032
16.2589
8.35931
19.5315
20.881
13.365
4.81773
4.94864
4.76024
2.95314
2.95803
3.29692
2.09892
3.34855
2.88772
2.52468
0.141628
3.59129
3.4225
3.48514
1.83621
20.8088
4.1713
14.0409
12.3742
4.58162
4.32503
3.70758
3.74585
SCALARS y_displacement float 1
LOOKUP_TABLE default
6.42549
-0.623733
-0.810677
-0.383827
-0.304184
-0.0375808
-0.0640769
-0.130414
0.587273
0.58639
0.470843
0.488233
0.388363
0.406954
0.251161
0.271519
-0.0545831
0.00834634
-0.525687
-0.416153
-1.11701
-0.965575
4.20561
0.467989
6.08891
1.40694
6.82881
2.62365
8.19105
3.88915
6.8551
3.65575
8.25389
4.28061
7.47898
3.96745
8.23113
3.16905
8.06135
3.41161
3.08738
3.0166
6.06979
0
0
0
0
0
0
0
0
0
0
0
0
0
0
0
0
0
0
0
0
0
0
0
0
0
0
0
0
0
0
0
0
0
0
0
0
0
-0.586616
-0.566714
-0.567278
-0.586194
-0.61267
-0.641464
-0.669842
-0.696585
-0.721234
-0.743471
-0.763282
-0.780564
-0.795318
-0.807518
-0.817119
-0.824568
-0.830209
-0.834106
-0.836575
-0.837745
-0.837792
-0.836887
-0.835232
-0.833047
-0.830501
-0.827758
-0.824958
-0.822222
-0.819653
-0.817333
-0.815326
-0.813674
-0.812402
-0.811507
-0.810971
-0.810727
-0.810673
-0.756969
-0.703061
-0.649
-0.59499
-0.541283
-0.487973
-0.435558
-0.373635
-0.363798
-0.353957
-0.344063
-0.334126
-0.324161
-0.314177
-0.270867
-0.237553
-0.204234
-0.17091
-0.137578
-0.104244
-0.0709114
-0.0409135
-0.0442428
-0.0475636
-0.0508727
-0.0541688
-0.0574592
-0.0607547
-0.0708228
-0.077715
-0.0848541
-0.092427
-0.100397
-0.109173
-0.119162
-0.072846
-0.0174313
0.0345688
0.0835866
0.129125
0.174209
0.218588
0.262803
0.307563
0.353074
0.399387
0.446208
0.492776
0.537715
0.578317
0.611318
0.62139
0.584116
0.588825
0.581954
0.568195
0.544781
0.510636
0.469793
0.466441
0.463348
0.504351
0.50611
0.502764
0.493449
0.477822
0.454414
0.423247
0.387444
0.38475
0.383616
0.421661
0.418867
0.410414
0.394888
0.371526
0.33898
0.297241
0.250085
0.246916
0.245232
0.279231
0.265009
0.24002
0.202745
0.152951
0.0904682
0.0188081
-0.0578685
-0.0673671
-0.0717435
0.055109
0.0531696
0.0300712
-0.0205794
-0.101667
-0.218576
-0.367017
-0.532094
-0.553637
-0.575859
-0.265758
-0.187761
-0.121773
-0.0639958
-0.0090895
0.0452525
0.100077
0.155774
0.212167
0.268063
0.321208
0.367185
0.396606
0.392959
0.316219
0.111155
-0.412977
-1.13677
-1.21035
-1.28227
-0.689676
-0.5341
-0.377537
-0.227523
-0.064568
0.0531965
0.626074
3.07221
1.84435
0.786286
0.870653
0.94883
1.01811
1.148
1.36172
1.80656
2.88389
4.5479
3.11048
1.91456
1.64501
1.60667
1.66002
1.75845
1.96387
2.16584
3.12214
5.54913
4.24599
3.19881
2.5688
2.58091
2.61545
2.72939
2.94991
3.37032
4.36235
6.95366
5.6644
4.59164
3.97601
3.73476
3.61924
3.56714
3.60831
3.7927
4.30577
5.78024
5.03896
4.28578
3.28774
3.12273
3.00986
3.01214
3.14345
3.46194
4.25549
7.16233
5.98356
4.97082
4.32563
4.26166
4.20483
4.21959
4.34171
4.5936
5.29308
6.36694
5.67433
4.95339
3.31115
2.9506
2.70682
2.64998
2.81291
3.24507
4.42236
6.75704
5.45492
4.49312
2.6012
2.2633
2.03865
1.98316
2.14823
2.65763
3.90292
6.83983
5.63856
4.71762
2.68553
2.36567
2.25733
2.26993
2.40986
2.60006
2.83923
3.10042
3.13715
3.13207
3.28908
3.656
4.029
4.41743
4.82553
5.24549
5.66474
6.08636
6.15337
6.25774
-0.697215
0.107974
-0.0323718
-0.228908
3.71926
-0.942246
3.78638
3.06756
2.86002
2.52596
0.520459
-0.735588
3.09299
0.415979
0.446982
0.422646
0.459179
0.422885
2.43436
2.27591
1.60174
1.80585
0.887131
-0.444707
0.420763
0.0305818
0.132867
0.0630761
-0.626829
0.180436
-0.529237
-0.956097
-0.151637
-0.120205
-0.0781697
0.578115
-0.0369427
-0.373168
2.20918
-0.726686
0.347896
-0.0687507
-0.0416471
-0.721641
0.267068
-0.256737
-0.172306
-0.0855984
-0.38396
-0.547537
-0.170922
0.0170746
0.0954937
-0.669619
-0.125459
-0.0601108
-0.246002
-0.150793
3.32743
-0.283991
-0.40802
0.514035
0.394987
0.447175
0.353493
0.369619
0.234663
0.278713
0.142796
0.441545
0.147628
0.0173696
0.135809
0.212522
-0.287398
-0.374569
-0.872034
-0.972833
1.42777
1.00283
3.00022
3.09975
-0.407005
-0.141664
0.352772
0.336026
0.151023
3.95107
0.265802
0.197999
2.61245
2.34002
-0.310525
0.590993
-0.216314
0.0861102
0.633446
3.40122
1.17883
2.91769
-0.150114
-0.20871
-0.35623
-0.418449
-0.557181
-0.60879
-0.480371
-0.684309
-0.180833
-0.309096
-0.390913
-0.415005
-0.0729541
0.826653
0.275919
0.134994
0.198695
0.0767206
0.400478
0.312817
0.294042
-0.521078
-0.382045
0.578336
-0.196162
-0.625132
-0.787838
1.58713
0.451285
1.90331
-0.456804
-0.380922
0.526657
-0.00291249
0.00705382
-0.0494216
0.229361
-0.721055
-0.277956
1.9695
0.308419
0.202426
0.436416
-0.314136
0.125219
0.257193
-1.19806
-1.1296
-1.35137
-0.505523
0.595809
0.506853
0.530016
0.00188195
1.87807
-0.244596
0.890394
-0.509396
2.59796
2.38051
-0.215699
0.0950154
-0.480661
-0.394623
-0.474155
-0.307358
0.246587
-1.2854
-1.36468
-1.15086
2.60002
-1.2599
-0.911523
-0.736137
-0.603427
-0.632922
-0.0785814
0.3306
1.00287
-0.524026
-0.626631
-0.630258
-0.475773
-0.389472
-0.294326
-0.297493
1.23393
-0.852851
0.427268
-0.995497
3.65349
0.215261
0.727767
1.93347
2.58571
-1.0515
-0.295282
-0.498728
4.39271
0.0758254
2.24469
-0.114211
0.569648
0.232068
0.153967
-0.129896
0.207967
0.499162
2.85901
-0.276953
-0.135961
1.26088
0.0214398
0.0266066
-0.106967
2.06407
1.64642
1.41141
3.19491
2.53932
0.20029
-0.473288
0.50482
-0.0470356
-0.0987846
0.0542032
2.35602
1.64036
1.76156
-0.599811
-0.547075
-0.331984
-0.048809
0.241156
0.542484
-0.1821
-0.210057
0.563105
-0.523761
-0.0508047
0.157665
0.566393
-0.549725
-0.167246
-0.265392
-0.599351
0.486431
0.436695
0.409506
0.324593
-0.0316807
0.342407
-0.221631
-0.661664
-0.549042
-0.58504
-0.5888
1.31841
0.902556
-0.513402
-0.967192
-0.0116929
0.191225
2.58574
3.12992
2.35488
2.28674
-0.525419
2.74061
1.66548
-0.526027
-0.635062
-0.145583
-0.20123
1.20203
0.226697
-0.0222858
-0.72997
-0.410512
-0.222161
-0.218319
-0.16167
-0.290235
-1.15008
0.158365
3.6811
0.260741
-0.726283
-0.726489
-0.252836
-0.723917
-0.300019
-0.314925
-1.07164
2.08977
0.608811
-0.0232054
0.8176
1.54192
-0.0388511
0.0219278
0.407685
2.37334
-0.146568
-0.544843
-0.573908
2.09041
-0.138418
0.0787199
-0.847821
0.366108
0.386137
2.53625
2.41704
2.35878
2.61406
-0.425882
-0.412889
3.42103
0.526431
-0.640187
0.0529435
0.556709
0.498158
-0.549537
0.250122
-0.574154
-0.435753
-0.180144
0.308435
-0.321998
2.96219
0.0445355
-0.229934
-0.136796
-0.138789
3.26872
-0.233531
0.48599
0.0555685
-0.643233
0.384052
3.64026
-0.43867
1.00428
-0.341127
-0.146041
3.89526
0.851549
-0.919568
0.282232
0.320002
-0.101719
4.37066
-0.830117
0.268295
0.400981
0.059132
-1.23505
0.575121
1.31505
-0.734339
-0.385673
2.98085
-0.0298755
0.490935
-0.0882781
0.57706
-0.040451
2.89544
-0.444219
0.156211
-0.688729
-0.253824
0.803123
-1.14504
-0.74764
-0.705158
-0.506494
1.63443
-0.35674
3.48288
-0.627701
-0.171075
-0.211243
-0.824105
0.762461
0.0131573
-0.300581
-0.00937361
0.0328944
3.08177
0.474922
0.486041
-0.262407
-0.643868
-0.0151923
1.36587
0.533518
-1.17095
0.261862
1.1239
3.18316
-0.0789947
-0.219961
2.33634
-0.459804
-0.200056
-0.381849
2.73938
0.112378
2.71019
-0.636865
-0.0632748
-0.055188
-0.4224
-0.290772
0.335004
0.452623
0.255796
0.543983
-0.715584
3.44885
1.45625
2.68594
3.48374
2.74607
-0.208202
-0.392469
1.7328
2.29138
-0.786965
-0.0182599
0.59679
1.64981
-0.234632
0.106002
1.89977
-0.734414
-0.231927
-0.01402
0.197146
-0.222807
-1.16023
2.19217
-0.769679
0.353818
-0.168622
0.140205
-0.216705
-0.103555
-0.955187
0.184904
4.01954
4.40717
4.81796
-0.184926
-0.227037
-0.234577
-0.192471
-0.209755
-0.192256
-0.418787
-0.00152976
0.219584
-0.109184
-0.637189
-0.577249
-0.536449
-0.594887
-0.586227
0.0856562
0.159112
0.174954
0.0862154
0.131952
0.126953
0.0661942
0.0800755
0.144053
0.104646
-0.544814
-0.679241
-0.637353
-0.538018
-0.609507
-0.219149
-0.259936
-0.297685
-0.256788
-0.258393
0.172393
0.112652
-0.102263
-0.010285
0.0577859
-0.293084
-0.339524
-0.327362
-0.333556
-0.246582
-0.0814936
-0.136341
-0.310489
-0.19182
0.447102
0.487553
0.518294
0.478646
0.486106
-0.402591
-0.350644
-0.311169
-0.362224
-0.356462
2.70085
2.34954
3.49637
3.07166
2.5159
2.5983
2.34631
2.52285
2.44503
-0.000631996
-0.0475465
-0.00475859
0.02599
-0.000512391
2.37527
2.73738
2.96243
2.68519
-0.295362
-0.383565
-0.423849
-0.328595
-0.35678
-0.357148
-0.195648
-0.139836
-0.317534
-0.252491
0.236301
0.223377
0.28197
0.304257
0.262856
-0.659014
-0.728471
-0.697505
-0.630972
-0.678686
-0.152148
-0.0438559
-0.00519704
-0.153129
-0.0905595
-0.246056
-0.179142
-0.138707
-0.185742
0.137235
0.196886
0.219551
0.165629
0.182862
1.25586
1.76079
1.31105
1.00494
1.31033
-0.689322
-0.732886
-0.679742
-0.684643
-0.619868
-0.513477
-0.527894
-0.643195
-0.575317
1.60618
1.02482
1.03624
1.68098
1.32702
-0.62119
-0.530045
-0.384428
-0.478327
-0.507201
0.366697
0.385935
0.314599
0.344811
-0.643336
-0.430376
-0.210723
-0.435867
-0.416902
-0.212121
-0.20902
-0.287211
-0.249981
0.25374
0.3036
0.339164
0.295623
-1.02302
-0.771091
-0.983501
-0.858705
-0.578435
-0.47922
-0.41462
-0.505615
0.44756
0.370015
0.385995
0.458984
0.418586
-0.344006
-0.411029
-0.362045
-0.29679
-0.352855
-0.304644
-0.276949
-0.156853
-0.210455
-0.547689
-0.56377
-0.65989
-0.634878
-0.601446
-0.176726
0.740195
0.246555
-0.226719
0.127152
0.172738
0.117472
0.0792358
0.1247
2.89118
3.61037
3.17929
2.72203
3.05678
-0.270404
-0.407769
-0.336506
-0.710613
-0.560265
-0.531056
-0.619589
-0.276275
-0.642586
-0.349121
-0.0912704
-0.0540977
-0.102501
-0.069877
-0.473877
-0.501332
-0.602234
-0.534911
1.2387
0.68123
0.851911
1.48041
1.05363
0.05824
0.0959345
0.0442974
0.0701066
-0.349271
-0.361578
-0.277528
-0.31831
-0.483223
-0.495111
-0.434903
-0.423315
-0.458916
2.69679
2.73856
2.81824
2.90728
2.74609
0.0329123
0.0635818
0.490672
0.498413
0.493812
0.480747
0.492326
0.198549
0.220234
0.212597
-0.453318
-0.86887
-0.393576
-0.466226
-0.680656
-0.631423
-0.677096
-0.726438
-0.678882
-0.548148
-0.501365
-0.569839
-0.525251
2.83487
2.90407
3.42515
3.41574
3.12268
-0.419144
-0.426097
-0.464418
-0.499998
-0.434124
-0.467757
-0.450912
-0.468934
-0.463169
-0.522649
-0.466133
-0.120118
1.44333
1.94142
2.17674
1.56727
1.77588
-0.595204
-0.538857
-0.543968
-0.573421
-0.652776
-0.612867
0.46089
0.391409
0.448708
0.424365
-0.958638
-1.28287
-1.29155
-1.16403
-0.312609
-0.412765
-0.362094
0.447289
0.818862
0.521076
0.170281
0.476486
-0.196227
-0.149357
-0.140934
-0.18417
-0.166612
-0.45991
-0.409428
-0.403583
-0.25931
-0.327809
0.296049
0.340346
0.351606
0.303146
0.32478
-0.215373
-0.265379
-0.239157
-0.0349856
-0.0610484
-0.0429142
-0.42772
-0.40941
-0.397637
-0.395637
-0.407655
-0.0246836
-0.0889258
-0.0803675
0.134479
0.224242
0.335029
0.281597
3.22704
2.73986
2.61221
3.22611
2.96237
-0.676225
-0.62347
-0.543504
-0.610714
-0.806739
-0.406817
-0.442278
-0.0285971
-0.0405776
-0.0311455
-0.465522
-0.491742
-0.478948
-0.466265
-0.459397
-0.509358
-0.516299
-0.487736
0.0850276
-0.0301861
0.0429092
0.15459
0.0663853
-0.38298
-0.413158
-0.424246
-0.460454
-0.409182
-0.701976
-0.645197
-0.633485
-0.728287
-0.67633
-0.628563
-0.678127
0.47931
0.442682
0.530447
0.487318
-0.0465266
-0.0284724
-0.0289194
-0.0285369
0.332484
0.371347
0.366382
0.326982
0.351008
-0.0585755
-0.0357526
-0.0316147
0.785907
0.726548
0.894077
0.838971
-0.634263
-0.241442
-0.024884
-0.467471
-0.279976
0.573832
0.556408
0.555038
0.571538
0.565504
-0.0792951
-0.33614
-0.26119
-0.0977831
-0.185604
-0.0226008
-0.0337555
-0.0246513
0.39191
0.426371
0.382385
0.0164891
0.0364145
-0.0113606
0.0277534
0.35182
0.396905
-0.388375
-0.340798
-0.303725
-0.345755
0.0429075
-0.071129
0.394343
0.405697
0.424693
0.412328
0.410377
0.562491
0.516844
0.50663
0.55165
0.537319
0.259217
0.303516
0.223188
0.176797
0.243939
-0.34399
-0.383427
-0.0454954
-0.0659593
-0.0625943
-0.0556152
2.44172
2.69925
2.32987
2.21317
2.38425
-0.0722241
-0.0661161
-0.0996462
-0.387912
-0.406734
-0.459448
-0.694872
-0.827501
-0.739452
-0.723218
0.16054
0.144612
0.182689
-0.311009
-0.284369
-0.319186
-0.135359
-0.185464
-0.199734
-0.26932
-0.310767
-0.0825415
-0.10154
-0.129892
-0.0920362
-0.148964
-0.477684
-0.177543
-0.227349
-0.273828
-0.269466
-0.714143
-0.652907
-0.102934
-0.14361
-0.102219
-0.348982
-0.716525
-0.379364
-0.340175
-0.525111
-0.468386
2.65823
2.559
2.90397
2.79521
0.553133
0.530327
0.537482
0.545967
0.216044
0.103413
0.0542872
0.161177
0.135838
0.263309
0.307014
-0.291985
-0.395936
-0.365478
-0.77862
-0.783779
-0.781305
3.21262
3.34867
3.3789
3.08013
3.21954
0.261089
0.305516
0.338664
0.00214316
-0.0303899
-0.0263242
0.00469946
-0.0149134
-0.28849
-0.265398
-0.299755
-0.147344
-0.153211
-0.211972
-0.179611
0.498948
0.476131
0.457004
0.479809
-0.227049
-0.256473
-0.254949
-0.255721
-0.112293
-0.144076
-0.107552
-0.402538
-0.27451
-0.236298
-0.334078
0.230532
0.226151
0.280434
0.284338
0.258469
-0.57553
-0.58024
-0.577943
2.88366
2.54788
2.59993
-0.774333
-0.776495
-0.772125
-0.726598
-0.77318
0.178868
0.220938
-0.0513606
-0.0824348
-0.0420595
-0.180026
-0.220257
-0.18389
-0.18196
-0.549993
-0.559334
-0.529603
-0.770179
-0.771049
-0.584896
-0.610005
-0.562988
-0.0416748
-0.0248476
-0.053455
0.385671
0.353867
0.376632
-0.444251
-0.346272
-0.359946
-0.405163
-0.0433496
0.00364356
-0.0263463
-0.0713939
-0.0333309
-0.140613
-0.166351
-0.127478
-0.133937
0.595976
0.566924
-0.288994
-0.235069
-0.261784
-0.52152
-0.0142922
-0.241592
-0.121713
-0.148655
-0.11693
2.9975
2.63698
2.47842
2.67386
-0.259147
-0.242351
-0.148115
-0.192731
-0.423657
-0.767931
-0.725029
-0.768936
-0.202028
-0.170863
-0.198939
-0.101598
-0.0693762
-0.0550911
0.537073
0.544851
0.560635
0.550523
-0.523437
-0.464582
0.193431
0.253628
0.169819
0.10445
0.103066
0.135007
-0.0365792
-0.0325925
-0.0339086
-0.735231
-0.693552
-0.397529
-0.122511
-0.386995
-0.274766
0.584712
0.574537
0.580878
0.375755
0.41165
0.393071
-0.595801
-0.451087
-0.13186
-0.067566
-0.0240678
-0.053673
0.005928
-0.0239426
-0.993348
-1.06371
-1.23723
-1.07634
0.0421904
0.0410551
-0.573394
-0.575479
-0.842633
-1.00218
-0.949553
-0.908899
0.172561
0.1477
0.199653
0.18827
-1.19259
-1.18221
-1.29132
-1.25527
0.240794
0.165653
0.204371
0.301295
0.314217
0.350795
-0.127822
-0.0921874
-0.108546
2.01932
1.83651
1.16316
1.55436
-0.1548
0.0449587
-0.0717704
-0.00280944
-0.00119217
0.433638
0.460525
0.465765
0.430762
0.449523
-0.784672
-0.778202
-0.781921
-0.23869
-0.169247
-0.132358
-0.14788
-0.866593
-1.0609
-0.693917
-0.790669
0.404478
0.41942
0.412171
0.412492
0.0907715
0.0708795
0.106413
4.27308
3.59039
4.0045
-0.140176
-0.118034
-0.0891463
-0.103811
-0.112449
0.504163
0.528739
0.508342
0.520882
1.42194
1.32546
1.47293
1.53855
1.42995
0.504512
0.538628
0.506963
-0.268485
-0.260793
-0.337949
-0.302021
1.84081
2.53223
2.18978
4.09704
3.57693
4.08803
0.296575
0.339017
0.280837
0.296427
0.336346
0.295924
2.26598
3.25907
0.423614
0.453004
0.422651
2.71059
4.33855
3.47788
3.11338
0.211386
0.122287
0.149016
0.231519
0.179563
0.00105679
-0.0266229
0.00947016
-0.864721
-0.771243
-0.771846
4.46645
3.26291
4.30719
-1.23176
-1.15924
-1.11519
-0.0283588
0.0385098
0.0148383
-0.205606
-0.240269
-0.677443
-0.702018
-0.548145
-0.414701
-0.243598
-0.317269
4.01662
2.56823
3.87059
-0.515437
-0.767565
-0.758752
-0.763951
2.49153
1.92128
1.84895
2.13606
2.58285
2.80112
2.99961
2.79346
-0.0736149
-0.111468
-0.082042
0.278194
0.181521
0.244963
3.10812
4.27645
-0.18635
-0.181204
-0.154309
0.0022971
-0.0891263
-0.121773
-0.0377367
0.528414
0.740218
0.869387
0.713765
0.0687534
0.131224
-0.652315
-0.963545
-1.02459
-0.798422
-0.889563
-0.408996
-0.456356
-0.452934
-0.119659
-0.0626907
0.0464328
-0.0308326
-0.709283
-0.763321
-0.760101
3.55318
3.29545
-0.7845
-0.512628
-0.0465368
-0.296078
-0.338487
-0.434237
-0.38327
1.93562
2.03487
2.34119
2.13231
2.30105
2.70182
2.24497
2.44368
-0.302562
-0.198705
-0.356515
-0.322498
2.75649
2.53841
3.23314
-0.216409
-0.365472
-0.670375
-0.659646
0.560814
0.345206
0.245823
0.312749
0.517773
0.491752
-0.256668
-0.0212963
-0.0298297
1.8018
1.63601
1.68945
0.0964612
0.0374465
0.0494291
0.0717832
0.47614
0.508503
0.78193
1.77061
1.68435
1.29226
1.51694
0.0358025
0.036911
0.412649
0.414438
0.41393
0.113317
0.208676
0.260109
0.188275
1.03309
0.942822
4.52378
3.34663
4.26345
0.389805
0.398761
0.404611
-0.0738964
-0.1039
-0.0724051
-0.493299
-0.38628
-0.475221
-0.0312169
-0.0228819
-0.035153
-0.108882
-0.0782206
-0.627237
-0.574558
-0.0463781
0.0105419
1.69562
1.22881
0.862441
1.24117
1.23552
2.61959
2.4961
2.51674
0.423565
0.510581
0.471019
4.06834
4.99201
3.78736
4.15708
-0.95828
-0.91291
-0.911948
-1.00647
-0.970135
0.430976
-0.0812336
0.388304
0.180552
-1.3722
-1.33522
-1.33371
2.90818
3.02949
2.9101
-0.310696
-0.341916
-0.375089
0.0501137
0.0441925
0.0721136
4.461
5.09916
-0.487905
-0.0784368
0.210648
0.56286
0.130898
0.0503299
0.102625
0.117728
0.0294864
0.0375303
1.67194
1.97449
1.40677
1.8581
-0.158714
-0.134726
0.484502
0.455514
0.470713
3.39621
3.24043
-0.183016
-0.0967985
-0.773603
-0.524045
-0.463241
0.0747893
0.12209
-1.08198
-0.967241
-1.04534
3.03623
3.03308
-0.245688
-0.279931
0.0881235
0.168876
-0.215556
-0.259022
-0.259505
-0.103439
-0.0820736
-0.000463947
-0.0178902
-0.108783
-0.113526
-0.107037
1.62591
2.60582
-0.635964
-0.605321
-0.592819
0.500364
0.501767
0.495605
-0.179487
-0.170673
1.88437
1.90875
2.20112
1.95274
1.53538
1.56139
0.467368
-0.193612
-0.219652
-0.630967
-0.595085
0.257888
0.258714
0.275134
0.267854
-0.180287
-0.102571
-0.731285
-0.124998
-0.56738
0.489993
0.502307
0.49826
0.250627
0.23185
0.241718
-0.151111
-0.166112
-0.124246
0.0178708
-0.653026
-0.57822
3.80477
3.6321
3.61759
3.90919
2.4952
2.53802
-0.325307
-0.366566
-0.343679
-0.254124
-0.286455
0.407575
0.325559
0.377995
-0.68041
-0.719679
-0.675342
2.70673
-1.03031
-1.08494
-1.23782
-1.2343
-1.16918
-0.717735
-0.796612
-0.207793
0.0502358
-0.173414
-0.141421
-0.157417
-0.792394
-0.732622
0.558991
0.229396
0.114528
0.396336
0.590189
0.61303
0.603516
0.603361
0.55924
0.550615
0.53788
2.12954
2.36594
1.9675
1.75556
2.03816
-0.183324
-0.181662
-0.980407
-1.21247
-1.04422
3.09486
3.1253
4.01113
3.43482
0.544113
0.518426
0.53335
0.363257
0.313053
3.53929
3.57088
3.65568
0.098721
0.0624181
0.145557
0.150107
1.26064
1.20951
1.4915
-0.756746
0.00860113
0.0274174
0.020585
0.111443
-0.216581
-0.240995
0.205819
0.235922
-0.676759
1.11348
1.47225
1.42767
0.277202
-0.00534837
-0.047877
-0.0271355
0.171014
0.101662
0.137382
0.266856
0.214099
0.498924
0.50052
0.280484
0.303066
0.287369
-0.776968
-0.790459
-0.768308
-0.33464
-0.077742
0.239361
-0.0685644
0.404695
0.408068
-1.27716
-1.34806
-1.33316
-0.145053
0.0979104
0.100186
0.0242173
2.65348
2.87046
-0.733051
-0.682921
-0.709656
-0.922405
-0.65255
-0.668857
0.318559
0.328786
1.78985
1.97762
2.56306
1.98669
2.15566
-1.11014
-1.20962
0.0249034
0.0602876
0.568842
0.579037
0.570988
0.399084
1.27354
1.0084
-0.222506
-0.194287
3.46391
3.48446
-0.0679823
-0.947782
-0.856881
-0.00924489
0.0384685
0.280181
-0.637739
-0.333958
-0.217742
-0.417905
3.90904
0.321077
0.0349639
-0.382519
-0.0587406
0.433317
0.423898
3.16394
2.58728
2.83228
2.35372
2.4812
-0.200239
-0.857125
0.320807
0.302711
1.05575
0.961319
1.21457
3.03072
2.55899
3.4189
2.9173
0.361374
0.343135
-0.182212
-0.715822
-0.770016
-0.764936
0.585057
0.592212
0.585916
0.422954
0.441377
0.435461
-0.725099
0.506678
-0.712213
-0.7525
-0.765529
-0.680502
0.114517
0.919172
-0.266477
1.0359
0.778972
0.647146
0.243203
-0.101777
-0.150086
0.0451749
0.137998
0.385516
2.03105
1.4904
1.936
0.583909
0.576597
-0.285568
0.276846
0.303071
2.1262
2.04323
3.36635
0.452702
0.428806
2.14462
2.4739
2.05312
1.95283
2.08228
1.92148
2.46022
2.78371
1.0539
0.909731
1.14511
0.333404
0.301018
-0.331553
-0.502719
-0.447628
-0.243655
0.0160162
-0.0606347
1.71478
1.4713
1.21452
1.35193
-0.782493
-0.611499
3.538
3.26529
4.22951
3.45469
-0.104542
1.96649
-0.227935
-0.551809
-1.31978
-1.23168
-1.29795
2.88246
2.83157
2.25002
2.05318
2.05684
3.63126
3.16206
-0.633581
-0.659634
0.439634
0.518366
0.509655
0.159429
-1.05304
-1.08015
3.56507
3.90124
3.64987
4.1243
4.23322
1.22238
-0.0275589
-0.137286
2.68804
3.20947
2.80843
1.47139
1.93654
1.69915
-0.469097
-0.561331
-0.486228
-0.823574
-0.552075
-0.332332
-0.604453
0.575959
0.562035
-0.242388
-0.189129
-1.11612
-1.00954
0.0156769
-0.0163804
0.00893521
-1.30412
0.363452
0.367701
1.04462
0.780723
1.03174
0.472317
0.475267
1.90045
2.20445
2.29791
2.0965
0.499762
1.25851
0.669585
0.572081
0.077488
0.50992
0.523259
1.12901
4.15778
3.87367
4.07744
4.19905
0.594827
0.58595
0.00505201
0.0182381
4.10532
2.16987
2.70581
2.24091
2.48025
0.463597
1.09337
0.767535
0.808968
0.725018
0.939606
3.63568
4.33091
4.48306
0.501903
-0.247401
-0.211388
0.175312
-0.0894744
2.26713
2.33471
2.49846
2.32349
-0.296465
-0.195286
2.91734
3.74059
-0.676767
-0.00850928
-0.926747
-0.796531
-0.825119
2.82695
2.46625
0.567606
0.495965
-0.158476
-0.157331
-0.175473
-0.124799
-0.131189
0.455394
0.344778
2.58177
-0.417429
1.61179
1.41157
0.469677
-0.213591
0.375709
0.358246
-0.593481
-0.614248
1.88955
2.69837
2.27751
3.03209
1.40096
1.65768
-0.292029
0.671242
2.36509
2.14585
2.25755
0.604596
0.600601
3.06587
-0.323188
3.41416
3.52226
2.29669
-1.03871
-0.961775
1.11458
0.0217679
0.245361
0.26527
0.53762
0.681876
-0.133109
-1.0772
-1.13852
-0.773735
-0.385057
-0.587734
-0.478131
-0.53787
0.967395
2.07531
1.4663
3.06662
3.46682
-1.04774
-1.13772
-0.93809
2.67142
-0.0342259
2.8709
2.74783
3.12254
-0.40143
-0.442438
-0.848877
-0.63031
-0.918518
1.57985
2.17725
1.90458
-0.0691733
0.198631
2.32908
-0.219244
0.478809
0.0203002
-0.0294285
0.224095
0.198786
0.213729
0.532467
0.38433
0.6146
3.80011
3.27421
5.2266
4.55078
-0.222704
3.28602
5.45013
1.37531
0.737457
3.42859
0.392647
-0.873885
2.44113
0.945432
1.82556
4.15022
4.68211
SCALARS x_strain float 1
LOOKUP_TABLE default
-1.48402
-0.149183
4.55598e-05
0.00651126
-1.02423e-05
-9.53672e-07
-8.66923e-05
-0.0160277
-0.0537743
-0.173066
0.0101566
-0.39848
0.0118225
-0.341863
0.0137684
-0.362016
0.0149483
-1.14639
0.0427217
-2.92504
0.24622
-3.30844
-54.2555
-11.7854
-44.5505
-27.2869
-59.2727
-6.93532
-57.696
-13.5916
-56.4683
-3.49127
-52.2941
-6.16257
-62.2596
-4.79764
-42.6402
19.4054
-58.1816
9.60472
-0.0609236
-0.365921
-0.0267203
-0.102563
-0.098008
0.012845
-0.173059
-0.0738939
-0.0824479
-0.105256
-0.104693
-0.0835518
-0.075286
-0.0737823
-0.0709294
-0.0699876
-0.42066
-0.0690745
-0.365035
-0.0593177
-0.0538279
-0.0467745
-0.0475013
-0.0350276
-0.0298963
-0.025321
-0.0228439
-0.0205781
-0.0163149
-0.0131772
-0.0573378
-0.00901725
-0.0074647
-0.0060765
-0.00474323
-0.00339846
-0.0013005
0.0032019
0.0189327
-0.151683
0.0243292
0.0648231
0.0526102
0.0551432
0.0474202
0.0473758
0.0431677
0.0415413
0.0357658
0.0337953
0.0264406
0.0219954
0.0186036
0.0197276
0.0131728
0.0121804
0.00703634
0.00467053
0.00239149
0.00303598
-0.000955216
-0.00208559
-0.00283271
-0.00224022
-0.00364839
-0.00373527
-0.00373451
-0.00355335
-0.00328382
-0.00290578
-0.00242696
-0.00191089
-0.00137455
-0.000861417
-0.000399338
-0.000184313
0.000132365
4.5763e-05
0.00215194
0.00215214
0.00415294
0.00623827
0.00816281
0.0121624
0.000195267
0.000158638
-3.08041e-06
-1.52328e-05
-2.1317e-05
-1.33966e-05
-1.20495e-05
-4.65308e-05
-8.27286e-05
-8.33766e-05
-7.24812e-05
-4.03373e-05
-4.0389e-05
-9.80442e-07
-2.49508e-06
1.13484e-05
2.17066e-05
4.55821e-05
2.75583e-05
2.75779e-05
-5.10625e-06
-0.000134941
-0.00058055
-0.000825617
-0.00139448
-0.003239
-0.00434253
-0.00426953
-0.0502819
-0.0961447
-0.12184
-0.152452
-0.179619
-0.178943
-0.229148
-0.228695
-0.271873
-0.271539
-0.300102
-0.299812
-0.300738
-0.283347
-0.246082
-0.177018
-0.05461
-0.0614415
-0.194915
-0.0926779
-0.0171984
-0.0176636
0.0101262
-0.00716095
-0.00591299
0.00395663
-0.466822
-0.463498
-0.181709
-0.0848624
-0.00655613
-0.00625888
0.011774
-0.00244781
-0.0104287
0.00267577
-0.544018
-0.359965
-0.21988
-0.101508
-0.00860652
-0.00917363
0.0137656
-0.00300082
-0.0142592
0.00796232
-0.501449
-0.245218
-0.085532
0.0231428
0.0756462
0.078636
0.0144226
-0.00412682
-0.0630525
-0.0438948
-1.2527
-1.24398
-0.371711
-0.0821499
0.115694
0.118317
0.0420274
-0.00304863
-0.103552
-0.0745246
-4.86053
-3.56748
-3.44826
-3.43048
-3.43919
-3.43923
-3.47135
-3.47134
-3.43865
-3.43884
-3.1989
-3.19964
-2.45935
-2.46187
-0.630577
-0.863363
0.24381
-0.0410558
-0.0268524
-0.487735
-13.9076
-13.906
-13.7704
-13.7667
-19.4327
-16.2662
-53.8056
0.224515
-3.75892
-4.19912
2.42547
-5.089
-11.6248
-15.784
-21.9111
-22.0662
-43.8279
-13.0396
-2.35969
-3.40573
2.7695
-4.82328
-8.64396
-11.9241
-15.9018
-15.0751
-58.8357
2.86156
-2.9935
-3.86238
-1.92024
-1.91389
-10.9079
-15.3945
-22.1991
-22.1679
-57.5433
1.33601
-3.26019
-2.84812
18.2921
0.266874
-0.161917
-5.56963
-14.6187
-15.2854
-47.3156
2.5383
-1.0638
-2.19082
0.886136
0.884437
-8.20227
-12.1773
-17.8152
-17.7927
-52.1344
-1.37126
-2.75381
-2.86871
5.00242
-0.235761
-4.82033
-4.48831
-17.3332
-17.8548
-50.5636
-29.3865
-1.09071
-7.25523
4.4382
4.44555
-6.84757
-11.7687
-18.2168
-18.123
-41.2627
-17.4713
-1.55758
-7.48009
5.31621
5.3229
-7.80988
-14.1154
-22.4428
-22.3846
-57.9601
1.61532
-3.07935
-3.52751
9.59578
4.87145
1.75726
1.2973
-0.366992
-0.353521
-0.0572074
0.0361591
0.287568
0.184463
-0.365594
-0.803554
-0.959749
-0.864118
-0.500915
-0.494796
-0.0293735
-0.0212776
0.213928
0.356592
0.0150735
-3.61006
-0.10557
-3.34785
-3.61852
-10.035
-4.27985
-4.31245
-4.79068
-4.40864
-0.349534
-0.00117045
-2.39341
-0.455297
-0.555012
-0.536519
-0.617398
-0.6337
-0.976573
-6.98728
-6.62931
-6.1699
-6.04254
0.00441956
-8.11518
-1.22777
-1.22129
-1.53187
0.0347565
-0.206699
-7.49602
-7.96042
-0.0736824
-0.0982134
-0.312627
-0.269612
-0.205833
-3.30838
0.190232
-0.00178478
-0.296685
-0.0387496
-0.134845
0.0037672
-0.565993
-0.0647625
-0.0906777
-0.112309
-0.808496
0.0552074
-0.00146633
-9.58029
-7.69519
-0.95588
-0.0952189
-0.132515
-0.0516577
-0.000297434
-7.9728
-0.0415911
-0.0177801
-0.393433
-0.859281
-0.817181
-0.979988
-0.902624
-1.06328
-0.976657
-1.45967
-0.769229
-1.46839
-1.61888
-1.07272
-0.833514
-7.63573
-6.88353
-5.99391
-5.22652
-8.45505
-8.72646
-3.62312
-3.77552
-0.0157752
0.000513701
-0.934683
-0.71815
-0.67812
-7.45909
-0.604744
-0.546878
-0.263469
-1.81395
-0.0126853
-0.295924
-6.4186e-05
-1.14788
-6.2736
-3.75235
-4.95079
-5.28908
-2.05204
-1.87042
-2.21329
-2.02416
-2.16387
-1.81192
-1.62446
-2.07563
-0.0653032
-0.0322383
-0.0185018
-0.0062962
-1.07676
-7.59662
-0.47236
-0.452301
-0.402252
-0.326016
-0.569581
-0.607418
-0.675971
-0.00580904
0.00436221
-0.368955
-1.67964
0.00194044
-1.92903
-8.38623
-0.39413
-0.0687985
-0.0064394
-0.00172445
-0.249626
-0.16401
-0.193162
-0.140517
-0.630934
-1.54014
2.14923e-05
-0.0715988
-7.39833
-4.92738
-4.20044
-3.53288
-0.307108
-3.18405
-5.04484
-4.12326
-4.0035
-9.01268
-0.306929
-0.393497
-0.452134
-0.21264
1.60038
-2.36644
-3.46792
-0.00371123
-4.105
-3.28125
-2.57802
-0.533707
-0.0101154
0.0026148
0.00276309
0.00176702
-1.18849
-2.918
-2.84357
-3.82685
-5.50945
-2.78834
-3.5382
-5.1643
-3.8122
-2.63514
-1.64626
-0.453907
-6.77218
-0.00378704
-0.00277593
-0.0041968
0.0148011
0.0149036
0.00108966
0.0228417
-9.58641
-2.60255
-0.561761
-6.511
-3.73382
-2.37808
-2.49385
-3.98509
-4.36469
-2.65933
0.00272197
-4.60329
-0.639626
-0.188488
-4.61432
-7.30983e-06
-0.393082
-5.75702
-6.28906
-2.35943
-0.266908
-0.374943
-6.03456
0.138481
-0.425099
-7.33408
-0.360733
-0.248702
-0.705621
-5.72111
-4.52923
-3.88394
-4.01343
-5.85366
-1.19667
-0.813998
-0.545618
-0.13884
-0.118108
-0.150276
-3.16298
-2.22345
-1.85441
-0.00207176
-0.0107186
-0.0360158
-0.234991
-0.318427
-0.430332
-1.47173
-1.03374
-0.36879
-2.41264
-0.0680149
-0.59455
-0.161169
-6.1868
-4.24922
-3.77474
-3.52128
-0.568626
-0.344401
-0.410339
-0.374227
-0.1493
-0.732071
-0.0120482
-0.00100474
0.00712738
0.018383
0.0017867
-3.25178
-2.17621
-10.7856
-8.53863
-4.26833
-1.31457
-2.38084
-2.30089
-1.96784
-0.788108
-0.00723548
-0.976964
-0.624205
-0.000300545
-0.000585199
0.000166586
0.000109443
0.059089
-3.65891
-0.116969
-0.00267497
-0.00177753
0.000418791
0.00122644
-0.000439553
-3.2835
-5.43174
-0.26945
-6.05854
-0.254173
-0.000902024
-0.00231977
-3.5797e-05
-8.94031e-05
0.00349774
-0.00165135
-6.41169
0.0486969
-0.196719
-3.5294
-8.30745
-9.68217
-0.69409
-0.994474
-0.460577
-6.46021
0.000323886
0.00298482
0.00150062
-4.17568
-3.41426
-0.221732
-2.06259
-0.573909
-0.734969
2.46724
0.355872
-0.374552
1.70264
-2.63171
-3.19881
-5.49849
-0.509021
-2.59551
-0.764932
-0.453035
-0.340807
-1.11397
-0.408993
0.0440568
0.0543208
0.0317852
-0.886054
-6.02038
5.73235
-0.95724
-0.0331691
-0.0472749
-0.0838132
-4.97617
-0.00158436
-0.268033
-0.465961
-0.989671
-0.411781
-4.73945
-0.01916
-4.85939
-1.14937
-3.3289e-05
-6.06402
-7.12526
-2.84349
-1.13305
-1.03544
-8.73157e-05
-12.2812
-0.995501
-1.5713
-0.763417
-0.245056
-2.19847
-7.86696
-4.21992
-0.00115314
0.0923109
-3.89296
-0.203494
-0.536131
-2.26525
-0.341013
-0.52352
-3.73678
-3.75214
-1.42089
0.0205131
-5.44247e-05
-0.850688
-1.72411
-0.972442
0.0052004
0.0265324
-4.79163
-3.35516
-0.904511
-0.00192802
-0.0115104
0.00130417
-10.9831
-6.43045
-1.47769
-1.61707
-0.247918
-0.121152
-4.80678
-0.434671
-0.428224
-2.60298
-0.00256506
-0.319235
-6.59888
-0.0475225
-2.40635
-6.94418
-0.980657
-6.54916
-0.11594
0.00130457
-4.83364
-1.69372
0.00240169
-0.715223
-4.42403
-0.152875
0.163598
0.000404469
-1.80474
-4.78273
-3.06882
0.00105435
-0.247744
-0.193933
-0.871278
-0.416689
0.000318657
-3.11069
-0.756504
0.000235459
-0.770198
0.840377
-0.435014
-2.66416
-5.13422
5.36884
-3.335
-0.352313
-3.33899
-3.90598
-0.695924
-0.182534
-3.47886
0.0209365
0.000188199
-0.211687
-7.34027
-1.65387
-5.52932
0.604486
-7.43409
-0.515886
-3.01725e-05
-2.42548
-10.4506
-1.89807e-05
-1.63027
-0.909013
-0.809846
-0.725824
-0.553428
-7.89048e-06
1.42512e-05
-5.70237e-05
-6.14867e-05
-6.49072e-05
-5.58539
-5.16588
-6.57909
-6.50892
-6.49122
-0.00294908
-0.00437759
-0.0104158
-0.00661252
-0.00805128
-1.20457
-1.09947
-0.834254
-0.472509
-0.781559
-0.208603
-0.172309
-0.164385
-0.180449
-0.182037
-1.64023
-1.70853
-1.32593
-1.13512
-1.31462
0.00133253
0.00347747
0.00492717
0.00187673
0.00353104
-3.60375
-3.96035
-4.93094
-3.89088
-4.24171
0.00164928
0.00445934
0.000156385
0.000197154
-3.38938
-3.47221
-3.74855
-3.77399
-3.66955
-0.769793
-0.703766
-0.562993
-0.611185
-0.640161
0.000190448
0.00244612
0.000881278
-0.00262346
-0.00018574
-6.87376
-4.7003
-1.35789
-4.12438
-1.70619
-0.126979
-0.243791
-1.88273
-0.990313
-0.971757
-1.02577
-1.75879
-1.12874
-1.18868
-1.50871
-2.06045
-1.879
-1.88538
-0.0482503
-0.0306272
-0.0212337
-0.0279587
-0.0280298
-1.83192
-1.5917
-1.73947
-1.99535
-1.90667
-0.437458
-0.340434
-0.332424
-0.415225
-0.388943
0.0030364
0.00212722
-0.00108582
-0.00232402
-0.00131479
-0.84224
-0.764253
-0.966239
-1.07599
-1.00723
-0.884757
-0.401402
-0.57884
-0.587924
-0.25536
-0.591248
-0.433409
-0.237562
-0.362887
-7.46278
-2.77515
-3.85871
-5.11882
-2.88377
-0.00253062
-0.00180762
-0.00227209
-0.00193113
0.0104662
0.00589038
0.0147467
0.0196713
0.0153959
-3.7511
-2.8196
-3.05504
-3.88371
-3.34938
-3.20412
-2.90503
-3.20707
-3.55423
-3.31287
-0.376919
-0.46279
-0.506361
-0.458145
-4.6985
-3.83886
-3.97982
-5.01148
-4.60596
-0.0792859
-0.0655074
-0.045296
-0.0594247
-0.279927
-0.277643
-0.339265
-0.321407
-3.64616
-3.7047
-4.427
-4.40702
-2.62455
-2.56925
-3.0122
-2.83363
-0.648334
-0.745969
-0.623105
-0.575627
-0.650067
-0.0327333
-0.0119988
-0.00881134
-0.0247159
-0.0197943
-0.680531
-0.745189
-0.211092
-0.237578
0.0241469
0.0339998
0.0300343
0.0203076
0.0252159
-7.63738
-5.32031
-8.81029
-9.20043
-10.6972
-0.256837
-0.245913
-0.206347
-0.229952
-4.52499
-4.06925
-4.16143
-4.49408
-4.71272
-0.0539883
-0.0159153
-0.0291642
-1.312
-0.7074
-0.682734
-0.948191
-5.63241
-5.75933
-5.37651
-0.286129
-0.115187
-0.365639
-0.206923
0.0401999
0.0553029
0.0399583
0.0419689
-4.18183
-3.39624
-4.32946
-4.36424
-4.22281
-0.121496
-0.174945
-0.140405
-0.152417
-0.022042
-0.0296567
-0.0383496
-0.0379973
-0.00300275
-0.00670487
-0.0167361
-0.0101958
-0.0113087
-3.72548
-4.44756
-4.77709
-4.74983
-4.69752
-0.0607973
-0.0722632
-0.41852
-0.369838
-0.336252
-0.315857
-0.393098
-0.313318
-0.230008
-0.279401
-0.30393
-1.12296
-1.11014
-0.7788
-0.000930079
-0.0012346
-0.00191621
-0.00176895
-0.00139696
-0.000557774
-0.00157184
0.00432469
0.00237446
-2.29513
-3.26146
-4.62732
-2.45077
-2.819
-0.0129355
-0.00097683
0.00528476
0.00221956
0.00248625
-0.00200671
-1.57783e-05
-0.0064253
-0.0157984
-0.00449964
-0.00816579
-0.282523
-0.226929
-0.52869
-1.35868
0.12111
-0.686803
0.0021093
-0.00772591
-0.002188
-0.00619977
-0.00145603
-0.0056702
-0.494616
-0.566454
-0.414408
-0.469399
-5.32447
-5.00976
-3.89257
-4.53214
-0.00611433
-0.00464987
-0.00463077
-6.19267
-6.06088
-5.34872
-5.3428
-5.35218
-0.0133499
-0.00935105
-0.055832
-0.0303412
-0.047037
-0.0151437
-0.0237328
-0.914188
-0.673868
-0.496725
-0.569775
-0.611914
-0.417111
-0.367864
-0.524816
-0.0552057
-0.0133424
-0.0287381
-0.0870116
-0.26625
-0.149572
-2.74669
-2.56416
-2.90255
-3.26924
-2.94067
-0.0991462
-0.0935419
-0.0553181
-1.47099
-2.74716
-2.58106
-2.32488
-5.37556
-4.92137
-5.03071
-5.35988
-5.5872
-2.3401
-2.18187
-2.27426
-2.42732
-1.01541
-0.305643
-0.298719
-0.0653292
-0.227245
-0.121644
-0.0115645
-0.01646
-0.0193633
0.00710893
0.00381287
0.0023709
0.00493284
0.00488465
-1.56522
-1.77546
-1.54543
-1.46956
-1.65133
0.00581219
0.00434193
0.00710554
-0.955595
-0.569347
0.0101112
0.00436641
0.00428348
-0.00240455
-0.00232228
-0.00510605
-0.0030093
-0.348345
-0.305333
-0.305169
-0.307394
-0.0862825
-0.107003
-0.0285815
-0.0347894
-0.956365
-0.831412
-0.719067
-0.826408
-0.804068
-0.0531578
-0.026401
-0.0232879
-6.17298
-7.88966
-8.3705
-7.06432
-8.1417
-6.23244
-4.43423
-2.62103
-4.41854
-0.240938
-0.21214
-0.380451
-0.368109
-0.334012
0.123453
0.122464
0.07039
0.0127297
0.0727748
-0.111554
-0.146912
-0.0798376
-0.312673
-0.383319
-0.354198
-0.135114
-0.18208
-0.132956
-0.155079
-0.278278
-0.305475
0.00313193
0.0048889
0.00310825
0.00311717
-3.57957
-3.87614
-0.680381
-0.710416
-0.567221
-0.527396
-0.592468
-0.39896
-0.464738
-0.397121
-0.328839
-0.378992
-1.1773
-1.09142
-1.28496
-1.39176
-1.28225
-0.0126684
-0.0162887
-0.154579
-0.0839243
-0.115945
-0.10514
-6.73934
-3.9998
-5.05195
-6.3714
-5.58432
-0.429724
-0.706359
-0.579262
-0.996946
-1.30552
-1.16058
-3.45384
-3.07913
-2.60582
-2.886
-0.366737
-0.289347
-0.334989
-4.21452e-06
0.000241256
7.71699e-05
-0.0828898
-0.08339
-0.0560594
-1.02734
-1.0065
1.99386e-05
4.13211e-05
1.88654e-05
2.24309e-05
-4.58901
-4.13583
-5.42808
-0.00827882
-0.00156508
-0.00632998
0.00548548
0.00195806
-9.24512e-05
0.000482097
8.42055e-05
-0.838502
-0.969636
-0.300967
0.00579831
-0.00199555
-0.00483375
-0.055126
0.271526
0.171627
0.533513
-0.163136
-0.0938701
-0.32722
-0.209203
-1.1566
-1.40439
-1.34005
-1.11113
-1.21542
-0.245182
-0.278459
-3.27042
-2.76091
-3.63749
-0.00265635
-0.00232136
-0.00176405
-6.42195
-7.79579
-2.39841
-4.74474
-3.60805
-3.44435
-3.24852
-2.57132
-0.349063
-0.278547
-0.221745
-0.288524
-0.276935
-3.05961e-05
-4.56129e-05
-7.14926e-05
-0.102233
-0.0797829
-0.0581668
-0.0762286
-0.55772
-0.58257
-0.69171
-0.618983
0.000227256
0.000907369
0.000111339
0.000231307
-0.00062897
0.000486478
-0.000141369
-1.58546
-1.18989
-1.4778
-1.4136
-1.05371
-1.2487
-1.10445
-0.903115
-1.05631
-0.00380226
-0.000522478
-0.00134882
0.853008
-8.03262
-5.99955
-0.00263768
-0.00238671
-0.0021545
-0.00211722
-0.00226619
-0.198958
-0.221933
-0.00521978
-0.0389923
-0.0266347
0.00122995
0.00157731
0.000434538
0.000762641
0.000717117
0.00195855
0.00205662
-0.00135685
-0.00173283
0.00265192
0.00296718
0.00495429
-0.283826
-0.435505
-0.432987
-0.565376
-0.671137
-0.677406
0.0267974
0.0206016
0.0451048
0.0403139
-0.129361
-0.179586
-0.172028
-0.123836
-0.143367
-0.00291005
-0.00110863
-0.00119451
-0.00199037
-0.270285
-0.304596
-4.1616e-05
-5.68892e-05
-4.65825e-05
-6.87775
-4.97392
-5.83856
-0.000911149
-9.96618e-06
-0.000904175
-5.03111
-3.56097
-3.51771
-3.54217
-3.28549
-3.32356
-3.40926
-3.43623
0.003031
-0.00043147
-0.000407348
-0.00101816
-0.00150966
-0.00379062
-0.00911119
-0.100088
-0.099516
-0.130498
-0.436429
-0.483495
-0.405297
-0.403879
-0.00802514
-0.0159434
-3.5166
-3.24583
-0.430256
-0.40573
-0.319643
-0.357251
-0.165208
-0.180079
-0.103958
-0.000392398
-0.00148528
-13.3688
-13.7114
-10.1806
-13.7142
-0.276967
-0.144196
-0.183478
-0.934987
-0.773753
-0.761681
-3.81021
-3.55415
-0.000136511
0.0128381
-0.186913
-0.1412
-0.204678
-0.183339
-2.37604
-1.27413
-2.13624
-1.62737
-0.216104
-0.185237
-0.00375747
-0.00525718
-3.36714
-3.28483
-2.58445
-3.01062
-1.3514
-1.45185
-1.33419
-1.33439
-5.52782
-5.38158
-4.52694
-4.85038
-0.504765
-0.500294
-0.437202
-0.684
-0.565693
-0.608268
-0.0945419
-0.129908
-0.105421
-4.53329
-4.35574
-3.50547
-4.07665
-0.082533
-1.40184
-2.05482
-2.01657
-1.93744
-0.514835
-0.557443
-0.363015
-0.341821
-0.450853
-0.00222469
0.00287903
0.00233942
-2.77825
-2.45066
-2.02109
-2.11379
-4.65917
-4.45358
-5.49738
-4.95258
-0.496492
-0.480158
-0.478325
-0.4961
-0.275375
-0.235018
-0.263192
-1.34628
-2.83007
-4.68876
-0.0718618
-0.0899944
-0.120817
-0.0903025
-0.0974303
-0.396315
-0.415009
-0.195565
-0.316998
-6.98555
-8.34047
-8.46808
-11.0553
-9.14205
-0.00528927
-0.0854035
-0.0262014
-0.041878
-0.0152074
-0.000731032
-0.0186529
-20.3759
-2.22891
-4.07985
-1.38521
-12.7315
-12.033
-1.03706
-0.981977
-1.07882
-0.0135462
-0.138785
-0.00301175
-5.24345
-8.59572
-0.00963462
-0.107511
-0.00263666
-5.27136
-5.63908
-0.936106
0.321889
-0.682382
-0.60385
-0.53077
-0.591933
-0.597161
-0.121146
-0.101569
-0.124831
-2.2002
-2.00709
-2.49538
-3.23095
-11.2771
-8.10985
-3.4852
-2.74111
-3.36193
-0.478584
-1.22271
-0.863206
-0.058514
-0.0477443
-10.8716
-12.2911
-13.3828
0.0626582
0.0304691
0.0603491
-3.1191
-9.38733
-7.91734
-0.0126587
0.00464661
0.0123272
0.0101772
-4.45957
-4.46979
-5.19897
-4.92395
-4.39061
-4.81711
-3.95099
-4.77925
-0.118723
-0.0994549
-0.138823
-0.774396
-0.780705
-0.706313
-10.7531
-12.2335
-0.000757638
-0.000155756
-0.000768542
-1.12411
-1.49869
-1.28758
-1.33424
-7.33196
-8.06753
-9.22668
-7.27961
-3.49638
-3.5191
-8.35122
-6.84046
-7.02222
-8.50449
-7.57648
-2.57313
-2.30477
-2.50994
-2.12688
-1.89504
-1.70179
-1.88369
0.00196845
0.000325645
0.000133178
-2.17807
-1.43686
-0.00292476
-9.74937
-10.1731
-8.73539
0.00129697
0.0188867
0.0107244
-6.24551
-6.98526
-6.94533
-7.06979
0.613538
-0.373423
-0.0841427
-0.201987
-1.77742
-1.02873
-0.142398
-0.101924
-1.46979
-0.533543
-1.94453
-0.239805
-0.00566377
0.00193777
0.00196926
-0.145375
-0.81185
-0.874436
-0.825663
-0.497136
-0.501333
0.00155665
-0.205125
-0.221287
-14.5504
-10.1922
-13.9076
-0.465967
-0.410515
-0.32271
-0.369953
-2.41291
-2.93058
-3.24473
-8.0911
-7.18706
-6.83123
-6.70143
-1.21183
-1.16735
-0.423478
-0.47711
-0.49544
-1.07492
-0.981194
-1.06371
-1.11178
-10.4892
-9.2585
-2.76305
-11.4175
-10.093
-0.234852
-0.412287
-0.423512
1.33297e-05
-2.96447e-05
-2.60098e-06
-2.16342
-2.17495
-2.19057
-0.16566
-0.217836
-0.167372
-1.69197e-05
2.40952e-05
-0.00245411
-0.00453307
-3.43131
-3.46289
-2.29383
-1.55587
-1.01959
-1.97598
-1.67338
-10.6099
-5.35515
-6.86008
-0.791214
-0.586814
-0.672544
-10.3398
-13.0029
-5.63608
-2.79089
-8.55157
-10.0234
-9.74485
-7.64284
-8.68074
-8.0205
-6.96815
-7.3346
-7.03684
-3.52771
-2.79033
-3.54547
-9.57316
-2.18884
-4.48702
-2.30677
-2.676
-2.50621
-0.286055
-0.249941
-0.290974
-16.9197
-13.3772
0.0244837
-0.101507
-8.61117
-7.53189
-0.90236
-0.847822
-0.691242
-0.765225
-0.240683
-0.209036
-1.36529
-0.569969
-0.798929
-1.1092
-0.0724429
-0.086693
-0.512835
-0.568988
-0.587989
-4.72768
-2.74349
-3.35324
-3.4112
0.00225019
-2.03401
-1.60127
-0.528171
-0.473102
-6.36028
-7.08505
-7.13877
-5.89915
-9.49299
-6.61265e-05
-3.74057e-05
-1.03203
-0.954103
0.00107492
0.00130932
0.00309504
-0.0421641
-0.0838499
-0.68789
-0.768791
-0.672053
-1.62077
-0.976388
-9.76098
-10.2911
2.09172e-05
0.00116199
0.000771327
-0.506865
-0.393251
-0.419802
-0.0405124
-0.062527
-7.23651
0.215427
1.48778
-0.733756
-6.88172
-8.47031
-0.386255
-5.97363e-05
-6.90141e-05
0.00112982
0.00205715
-0.337238
-0.47807
-0.538462
-0.527586
-2.01351
-1.79774
-0.141228
-1.26862
-0.239645
-0.185557
-0.423987
-0.316303
-0.603626
-0.385532
-0.440618
0.0030955
-0.0223336
-0.0426362
-0.121485
-2.02341
-2.17855
1.36052
-3.63042
-4.43955
4.33433
-7.57759
-6.47838
-3.29118
-3.09178
-3.20762
-2.10989
-2.12257
-0.847058
-0.95575
-0.849498
0.000421867
-0.000163485
0.000478451
-7.69856
-3.69296
-2.83176
-2.52168
-3.36557
-3.08824
-3.76543
-3.65842
-1.06992
-1.03531
0.000110033
-3.19807e-05
3.91373e-05
-1.80475
-1.74844
-1.93172
-0.624763
-0.816507
-0.540124
-0.334594
-0.181278
-0.259005
-0.27217
-0.438673
-0.443891
-0.480067
-3.35884
-3.14662
-2.61175
-2.46099
-2.61606
0.000338187
0.00133595
-1.43103
-1.96844
-1.2929
-4.46247
-4.18894
-5.87368
-8.12656
-0.516673
-0.514623
-0.508625
-0.908235
-1.03707
-5.29678
-5.03523
0.691621
-1.36696
-1.2819
-3.37225
-3.768
-8.47101
-19.7274
-6.19886
-9.81415
-0.257485
-0.297917
-2.01627
-2.80032
0.000108957
9.12674e-05
-0.160709
-0.325233
-0.002121
-9.93343
-7.38988
-11.3393
-0.553838
-0.2153
-0.138369
-0.162023
-1.22192
-1.53308
-1.35536
-1.17229
-1.29428
-0.392452
-0.394656
-0.659842
-0.629001
-0.549633
-7.97209
-6.4407
-6.79977
-6.27209
-6.81178
-7.13021
-6.86971
-0.923802
-0.857057
-4.03095
-2.92324
-3.3291
-0.00369765
-1.65612
-0.0643537
-0.00595518
0.342335
0.0526827
0.021037
0.0342559
0.029594
-5.58912
-6.27739
-6.29953
-0.69737
-0.666323
1.28971
4.17612
5.61879
0.347151
1.33971
-5.04306
-4.36448
-0.524916
-0.662617
-0.452287
-0.317433
-0.362376
-6.2928
-3.49167
-4.86093
-9.08258e-05
-0.00130562
-6.1527
-10.0988
-0.12136
-10.6715
-8.7699
-2.32224
-3.06282
-2.97878
-1.692
-1.76966
-0.734482
-1.14936
-2.45346
-4.8914
-3.74916
-3.50253
-3.84076
-0.551819
-0.50799
-5.08545
-5.0408
-4.44544
1.14894
0.759613
0.000109711
-10.6647
-1.05745
-1.08794
-9.61336
-6.00331
-5.37265
4.58494
4.8673
3.79997
5.58005
-0.972484
-1.01973
7.82718e-05
0.0168715
0.020228
0.0134096
-0.355306
-0.2685
-0.278763
-0.869728
-0.611377
-0.685984
-3.47214
0.0057749
0.0158553
0.0221963
-0.000151245
4.31639e-05
-6.80416
-11.7944
-7.51993e-05
-5.84646
-4.6473
-5.00771
-7.6131
-7.59533
-8.11509
-8.43719
-0.173507
-0.921676
-6.96702
-6.55358
-7.06072
-0.347649
-0.404277
-3.29695
-0.659411
-0.83985
0.475509
-7.04276
-6.57664
-0.328361
0.00443733
-1.99404
-3.14409
-2.64086
0.664532
2.47269
3.15866
-4.40119
-4.87457
-7.48096
-8.20069
-8.3694
-0.395547
0.0106857
-3.23596
-3.49617
-2.36074
-3.02795
-1.49656
-0.812624
-6.99251
-5.89748
-6.0241
-5.94587
-2.54875
-3.47191
-4.35387
-3.82964
-4.90001
-6.12794
-0.464011
-9.06458
-1.14825
-0.637732
-2.40709
-2.21785
-2.24653
-3.29476
-10.5177
-4.22274
-4.27303
-6.90485
-2.36382
-4.42744
0.0438949
0.0396363
-0.579854
-0.453121
-0.525327
-0.140791
-6.03157
-5.60875
-5.5104
-5.70106
-5.29818
-8.45181
-12.3112
-10.922
-1.49478
-1.50997
-3.18018
-4.64844
-3.8319
-4.47512
-4.61252
-4.49899
0.0714023
0.0474973
0.0651006
-6.24435
-7.43179
-7.06285
-7.0401
-0.361043
-0.451919
0.0231244
0.00317346
-5.82183
-6.27054
-0.44983
-0.35256
-0.347966
-2.35801
-0.240441
-0.237188
-6.61504
-6.65691
-6.78088
-0.192884
-0.184097
1.52551
-0.745171
-0.97103
-0.935961
-0.274524
0.229397
-0.632827
0.0537628
-1.4243
-0.397356
-0.435229
-6.04318
-5.20464
-5.31161
-4.8216
-3.42842
-0.295527
-0.34894
-0.245507
-0.218157
-5.03252
-0.540939
-4.15913
-4.27983
-4.19028
-1.88637
-2.71203
-2.27362
-8.7875
-7.5758
-9.93536
-3.80376
-2.77421
-2.88937
-0.399653
0.00297747
-0.0204998
-7.62736
-6.99562
1.26849
0.400662
4.32465
3.45644
-2.84983
-1.71892
3.97714
-3.61679
0.0132852
-0.254131
-2.23505
-1.33528
-1.30305
-0.761703
-0.928664
-7.34096
-6.42335
-4.27095e-05
-3.60026e-05
-5.62934e-05
-3.26882e-05
-4.3142e-05
-6.59547
-7.55386
-0.758097
-8.47114
-3.43859
-2.56357
-0.308876
-2.25573
-0.470392
-0.370081
0.0533886
0.0470237
-0.117906
1.69078
0.118513
-3.49311
-4.7599
-5.96275
0.020982
-8.27386
3.45379
0.478103
0.846144
-0.197474
-0.267633
-3.44305
-2.78375
-4.06606
-5.24711
-4.61599
-2.33705
-2.3794
-4.54166
-0.447349
-0.712473
-0.643137
-7.16857
-6.52862
-3.52162e-05
-5.83532
-5.80618
-2.52497
-1.82109
-1.94004
0.0889159
0.0667969
-0.814341
-1.86219
-1.56912
-3.70986
-4.20415
-1.70655
-2.39079
-2.48027
-3.16226
-0.277463
4.55177
-2.05781
-1.70852
0.142117
0.118882
-1.371
-0.863118
-1.41225
1.23507
-4.0898
-3.77071
-1.74125
-2.08141
-4.03164
-1.88376
-7.61525
-9.70292
-1.71583
-0.858225
-1.09124
-0.681918
-0.497736
-0.329319
-0.0620265
-1.10794
-0.48094
-0.406081
-0.435658
0.125097
-0.372877
-0.32438
-0.430138
-1.1324
-5.14016
-0.472538
-5.94979
-2.00299
-0.565672
-0.181148
-0.790184
-0.639626
SCALARS y_strain float 1
LOOKUP_TABLE default
1.98773
0.101427
1.25641e-05
-0.00105597
-9.58576e-06
-2.54209e-06
0.00036746
0.0333477
0.0182567
-0.0201357
0.00887759
-0.215518
0.0118758
-0.389234
0.0139241
-0.445911
0.0324918
-0.511983
0.0604423
-0.245384
0.145053
-3.39722
20.1884
6.51817
17.4905
7.23556
22.2667
4.84193
20.748
12.8868
17.4924
5.8588
18.2796
4.80879
18.9724
6.92824
16.8259
3.31016
20.6203
13.1247
-0.139293
1.63047
-0.163183
5.09969
4.59339
3.43185
2.21264
1.55929
0.888175
-0.304895
-0.604258
-1.32947
-1.47568
-1.47152
-1.38396
-1.30878
-1.00787
-0.858624
-0.676093
-0.520442
-0.420636
-0.328758
-0.284387
-0.197145
-0.154212
-0.122703
-0.0995718
-0.0821231
-0.0713299
-0.0666573
-0.057962
-0.068249
-0.0758101
-0.0864433
-0.102121
-0.124584
-0.158385
-0.212876
-0.474969
-0.220092
0.0320005
0.0054591
-0.144153
-0.143472
-0.181397
-0.181933
-0.167329
-0.167291
-0.138968
-0.138965
-0.106923
-0.0912541
-0.0758676
-0.0758549
-0.0484036
-0.0481369
-0.0263642
-0.0172686
-0.00910702
-0.00914111
0.00388744
0.00852823
0.0118712
0.0118695
0.0154425
0.0158872
0.0156365
0.0147635
0.0134014
0.011655
0.00963594
0.00746687
0.00529346
0.00324169
0.00154904
0.00154839
1.37968e-05
0.000109349
-0.000329086
-0.000550869
-0.00112887
-0.00171533
-0.0019425
-0.00232895
-0.00023668
-0.000435369
-0.00034209
-0.00022191
-0.000121619
-5.61622e-05
-8.35148e-06
6.81043e-06
1.38998e-05
2.71371e-05
1.76841e-05
1.27747e-05
6.39537e-06
-2.91751e-06
-2.50919e-06
-7.4506e-05
-7.68013e-05
-0.00015052
-0.000258489
-0.000229659
-6.63666e-05
0.000334573
0.00271661
0.00274559
0.00576431
0.0138758
0.0217342
0.0308
0.0159428
0.0232017
0.0298992
0.0391317
0.0449585
0.0495519
0.0580788
0.0611256
0.0689771
0.0707358
0.0759273
0.0768405
0.07619
0.0722769
0.0673192
0.0385609
-0.0158897
0.0155981
0.0409176
0.0169482
-0.00368474
0.00784292
-0.00523704
0.0287969
0.0148893
0.0130514
0.0985779
0.110598
0.0496592
0.0275885
0.00196073
-0.00268876
-0.00610291
0.0117413
-0.00854464
-0.00901902
0.127206
0.0874211
0.0606668
0.0304303
0.00016975
-0.00314065
-0.00685929
0.0137244
-0.00383812
-0.00500256
0.10921
0.0586786
0.0387821
0.0184358
-0.00948298
-0.0331242
-0.0014494
0.0328704
0.0919612
0.00654938
0.268186
0.288977
0.11619
0.0510962
-0.0253558
-0.0516106
-0.0116928
0.0603301
0.200077
0.145329
0.677152
0.848588
0.852119
0.851804
0.856251
0.860389
0.872486
0.874691
0.874626
0.872692
0.82614
0.826954
0.647447
0.689743
0.308763
0.546902
-0.196943
0.697381
0.640701
0.681271
3.26137
3.11644
3.22343
3.28418
3.70695
1.46001
13.0188
20.6248
19.7586
18.4214
1.11075
2.82733
2.4505
2.90054
3.22283
3.24051
8.41692
17.4623
15.7056
13.9233
1.86598
2.3492
2.47801
3.16476
4.0055
0.715153
12.7677
21.5136
20.9093
18.4729
0.828867
1.42489
2.364
2.97969
3.60565
3.37001
9.66682
20.3841
18.4125
18.2641
1.90855
0.147501
1.13003
2.16469
2.96225
3.77189
6.53311
11.4165
11.9772
12.2337
-0.0395715
0.654736
1.90822
2.62877
3.34227
3.27294
8.4081
18.3269
16.8662
16.7881
2.62795
2.32057
2.33852
2.39889
3.68041
3.9568
8.34521
19.0186
11.7859
16.7554
-0.466396
0.228074
1.55315
2.76761
3.68663
3.56234
7.50089
16.8013
11.2481
15.4384
-0.499216
0.0641359
1.47996
2.61095
3.77686
3.44161
9.99786
19.2559
16.6841
16.6069
5.45763
0.379779
-0.0580753
-0.34622
0.229538
0.0230445
-0.029784
-0.13632
-0.38951
0.0933067
0.603224
0.209176
0.294958
0.230377
0.0701253
0.121912
0.0410892
-0.721021
-0.748412
-1.74633
-0.0610679
0.953078
0.0256046
0.762029
6.18351
0.359871
5.88792
5.13161
4.04287
3.38737
0.110491
7.90065e-05
6.50646
-0.055173
0.0561981
0.0379563
0.0912183
0.0903156
6.29479
4.98061
2.57284
3.08011
2.24535
-0.00127939
2.78317
-0.0175022
0.186861
0.331776
-0.142344
0.055219
1.62548
0.966339
0.0202269
0.0185627
0.0236989
0.0338759
0.0306544
0.561949
3.87441
0.0047002
0.0785436
-0.0815398
-9.0473e-05
-0.0207744
0.0213742
0.00336962
-0.0033413
0.0182235
-0.0847489
-0.195977
0.00423348
2.05895
2.01182
-0.743766
-0.00384616
0.0243579
-0.0272912
0.00220668
2.8849
0.00494978
-0.00917211
-0.0461233
0.245454
0.240621
0.291737
0.290328
0.364038
0.341177
0.335648
0.257414
0.388546
0.426435
0.352164
0.318389
1.56739
1.35698
0.611349
0.591039
3.53848
3.25355
2.46394
3.28457
-0.00679979
0.000459664
0.249302
0.284947
0.256729
4.4477
0.226154
0.199151
1.84283
4.82101
-0.00264586
0.041914
4.83657e-05
0.371251
1.40442
4.82168
1.97303
4.88194
0.508154
0.448207
0.40655
0.378277
0.289414
0.151681
0.203743
0.227458
-0.0325886
-0.0497558
-0.0428197
-0.00469912
0.333571
2.99233
0.185101
0.172903
0.153768
0.12004
0.067736
-0.0303098
0.0250664
-0.00508537
-0.00219906
0.0835132
0.301741
-0.000206286
-0.365191
-0.0788553
0.0216705
-1.40477
-0.0588653
-0.0797586
-0.0418953
0.0462841
0.0558356
0.0213486
0.0784213
-0.126553
9.96351e-05
3.70684
2.67454
1.57679
1.66947
0.617048
0.113885
1.03295
0.374178
0.38573
0.192988
1.21561
0.0785219
-0.00961193
0.0671063
0.0605207
1.42436
0.364719
1.54216
-0.0435138
2.26103
2.29882
0.480054
0.199941
-0.0331975
-0.00309179
-0.00187131
-0.00368202
0.287538
-0.198684
-0.243447
0.482448
-0.0573184
-0.0336469
0.873352
1.52023
1.03488
0.455654
0.467951
0.0178313
0.988024
-0.00404897
-0.000945828
-0.00498358
-0.097508
-0.136159
-0.105364
-0.161749
5.83661
0.362419
0.196084
1.11672
3.16833
0.681597
1.36683
2.95065
3.34931
0.140724
-0.00130674
0.892075
0.346065
0.0580698
2.82345
-7.63196e-06
0.109599
-1.11028
2.01704
0.073404
0.0251478
-0.0273488
0.324395
-0.318853
-0.00268529
1.98755
0.112387
0.0804127
0.190287
2.47149
2.8223
2.8037
2.99507
1.25254
0.230078
-0.476794
0.106394
0.0129059
-0.00533664
0.0401499
2.88556
2.23597
2.86029
-0.0244101
-0.0169534
-0.0278711
0.0261319
0.11258
0.132805
0.364517
0.194417
0.079945
0.324062
-0.0398066
0.0166453
0.0100417
1.89482
1.32134
1.13199
0.832535
0.189445
0.104387
0.12701
0.114376
-0.0010531
0.0982575
0.00133956
-0.0122586
-0.0568772
-0.0851783
-0.0372913
2.56573
1.91338
0.989334
0.700336
1.33998
0.428178
3.06539
4.22566
4.07033
2.73108
-0.00891871
2.34105
2.87602
-0.0015774
0.000554651
4.6127e-05
6.8213e-05
2.86671
1.24244
0.0311201
0.0053958
-0.00449817
-4.22097e-05
-0.000590278
0.00425273
0.693514
0.910561
0.0928593
1.61242
0.0680398
0.00329987
0.00459554
8.41663e-05
0.00252169
-0.00277236
-0.004034
0.46134
2.02259
0.0197542
0.905396
2.21865
2.65223
0.0983763
0.197095
0.0561152
2.77851
0.00154659
-0.0012779
-0.00126058
-0.14255
0.855825
0.0731697
0.134059
0.0864969
0.151418
2.49582
0.791572
2.67421
8.18419
0.158101
0.70151
5.74383
0.145346
-0.0136514
0.229919
0.118682
0.0652919
-0.085923
0.0738244
-0.17495
-0.204465
-0.216957
0.149851
1.28755
0.880679
0.321973
-0.0618312
-0.0726603
-0.0391951
5.07488
-0.00217145
0.0437187
0.153833
-0.626691
0.0709819
2.25499
-0.0243113
0.743181
0.196693
2.77662e-05
6.06486
2.95299
-0.0192691
0.306224
0.30283
-0.146734
3.2051
-0.951749
0.987152
0.285098
0.0833526
-0.443357
3.22736
2.03258
-0.00344241
-0.285519
1.3947
0.035519
0.0731457
0.556186
0.107697
0.157821
2.0583
0.63738
0.456004
-0.0895376
2.54113e-05
1.42884
-0.588414
-0.865217
-0.0289598
-0.127527
2.13753
0.845849
-0.867523
-0.000201774
0.00868698
-0.00141117
2.04606
2.21525
0.432346
0.388372
0.0666096
0.033182
3.31871
0.0578079
0.136401
0.417306
-0.00969978
0.0699348
2.02145
-0.0635387
-0.282767
2.01793
2.46824
-0.49287
-0.014653
-0.000343655
3.81319
0.0913215
-0.123519
-0.23089
1.8926
-0.0772224
0.196804
0.000437883
0.414666
1.57049
0.475112
-0.000543142
-0.0197602
-0.0162051
0.116732
0.0636408
0.00118943
-2.21803
5.44033
-2.59258
-1.08589
-2.01942
-0.118465
-0.0462086
-1.20642
-0.181857
0.748237
0.0770689
-2.27126
2.79217
-0.0672012
0.0437356
2.85967
-0.0734472
5.86408e-05
0.052723
2.22884
0.267354
0.448469
1.66393
0.975258
0.207734
4.01884e-05
0.517055
-0.348914
-5.64946e-06
-0.474289
0.104383
0.31018
0.337465
0.215273
6.62228e-05
9.44287e-05
5.82363e-05
6.53297e-05
9.6615e-05
1.5289
1.11945
2.17252
2.04685
2.01971
-0.00772951
-0.00689424
-0.0116445
-0.0144879
-0.0122088
-0.00490001
0.172491
0.118536
-0.180521
-0.055324
0.0633226
0.0516814
0.041917
0.0490276
0.0500455
0.211377
0.0401692
-0.184968
-0.0796721
-0.042104
-0.000577104
-0.00234758
-0.00273044
-0.000940409
-0.00171694
0.969458
1.20062
1.82878
1.11449
1.50922
-0.000540904
-0.00237127
4.78002e-06
0.000245283
0.852909
0.879711
0.99726
1.03653
0.998554
0.246963
0.236581
0.140791
0.135974
0.161738
-0.0041941
-0.0032876
-0.00365505
-0.00455018
-0.00422336
3.57574
-1.18012
-0.944595
11.0429
0.952742
0.811195
2.18818
3.16752
1.69642
0.202897
0.12833
0.38503
0.0639032
0.185044
3.61631
4.72463
5.21105
4.1818
-0.0118484
-0.0223064
-0.0182965
-0.00510349
-0.0136896
0.31005
0.391509
0.465354
0.427531
0.433329
0.169416
0.11088
0.10245
0.136475
0.126841
-0.0259939
-0.0140815
-0.0095829
-0.017481
-0.0161146
0.0890382
0.189987
0.314487
0.194707
0.279235
0.0764832
-0.170032
0.101517
-0.0248403
-0.139697
0.0406392
0.0194932
-0.0167211
-0.0521641
0.0773614
0.318989
1.32313
-0.0861158
-0.393228
-0.00675932
0.00260527
0.000244225
-0.00151208
-0.0540856
-0.0834075
-0.104089
-0.0815487
-0.0808624
2.92414
1.91302
1.77462
2.89375
2.51535
0.700098
0.596692
0.755551
0.879334
0.767307
0.117524
0.154171
0.199522
0.174041
1.21455
1.14188
1.16974
1.56952
1.33398
0.00385076
-0.0135549
-0.0247498
-0.0172683
0.0798745
0.0736882
0.0955082
0.0900897
0.632258
0.874629
0.802792
1.21514
0.385566
0.313165
0.579135
0.534995
0.219896
0.289048
0.226494
0.200645
0.23099
-0.00154158
-0.00503286
-0.00421554
-0.000426846
-0.00307462
-0.0675002
-0.349553
-0.429812
-0.537619
-0.126193
-0.146446
-0.1222
-0.0856548
-0.103102
0.762778
3.02329
0.759787
1.70268
3.99906
0.0701108
0.0836096
0.0657633
0.0624522
3.46013
3.91742
3.99523
3.6682
4.14921
0.0026453
-0.00679
-0.00495717
-0.333594
-0.600612
-0.426561
-0.368658
1.83588
1.72279
1.89803
-0.14139
-0.151605
0.015223
-0.0878194
-0.172602
-0.190295
-0.160816
-0.168131
2.57513
1.43886
1.88152
2.29819
2.09647
0.032464
0.0463236
0.0422265
0.0425386
-0.0483866
-0.0319104
-0.0411456
-0.0315385
-0.051539
-0.0419094
-0.036623
-0.0517884
-0.0435261
1.361
2.5145
1.47178
0.85662
1.47129
-0.0659368
-0.146492
0.0334077
0.0155979
0.0737542
0.045392
0.0640809
0.109082
0.0614551
0.0769136
-1.47469
-0.861431
-0.621636
-0.94394
0.00223787
-0.000308249
0.00135456
0.00581836
0.00273593
-0.0407005
-0.0660725
-0.0465466
-0.0551544
3.63645
3.50862
4.48478
3.64989
3.65086
-0.0633885
-0.0900334
-0.075759
-0.00274624
-0.00236285
-0.00401599
-0.00293488
-0.00439043
-0.0070476
-0.00404057
-0.00568374
-0.167823
2.91272
2.92796
4.39435
3.54972
3.72849
-0.0372739
-0.0279087
-0.0334874
-0.0194304
-0.0115866
-0.0161354
0.164816
0.222506
0.130883
0.159457
1.33959
0.642925
0.397081
0.651962
-0.00394078
-0.00468311
-0.00455396
2.0887
2.19416
1.93364
1.55744
1.65809
0.00304348
0.0116943
0.0197141
0.00685665
0.0200579
-0.0305478
-0.02618
-0.640875
-0.529353
-0.606948
-0.0941985
0.0212732
0.0355188
-0.0725388
-0.0299496
0.0144026
-0.00178938
0.00132365
-0.0967702
0.0267185
-0.0464958
0.216433
0.125688
0.26149
0.508053
0.283647
0.0234147
0.02375
0.0155927
0.405687
0.687351
0.675799
0.724621
4.08862
3.27048
3.87322
5.46085
4.9125
0.322709
0.298532
0.311408
0.317898
-0.946947
-1.36879
-1.47091
-0.0700174
0.0291335
-0.0219501
-0.00979084
-0.0197638
-0.0158794
-0.00166294
-0.00159731
-0.00144413
-0.0014763
-0.00161707
0.417165
0.491007
0.477257
0.40574
0.447188
-0.00156872
-0.00143165
-0.000761349
-0.0926328
-0.490059
-0.0490897
-0.0343988
-0.0463263
0.00546044
0.00230078
-0.00488906
-0.000147017
0.106905
0.0765137
0.0855943
0.0760517
-0.0231391
-0.0226118
-0.0740254
-0.0666664
0.22802
0.195157
0.119217
0.147263
0.133601
-0.0587922
-0.0906625
-0.0842642
1.16505
1.97253
1.88188
0.947745
1.8131
2.04158
1.34745
-0.257693
0.637097
0.0286408
0.0139323
0.0801797
0.0807631
0.0778594
-0.437418
-0.337422
-0.246277
-0.269909
-0.29926
-0.0254245
0.00834503
-0.0231814
0.0825584
0.128471
0.0999656
0.0356081
0.0545259
0.0335973
0.0462054
0.0700061
0.0756006
-0.00294703
-0.0023658
-0.00273997
-0.00325392
0.929592
1.05965
0.117878
0.144571
0.0423565
0.0250234
0.0576046
0.133343
0.166235
0.137955
0.0872571
0.11249
0.397144
0.30536
0.355279
0.439271
0.4039
-0.067766
-0.0565409
0.0123077
-0.0287424
-0.00369028
-0.0116611
1.84779
0.390973
2.04891
2.65174
1.55154
0.0995285
0.185405
0.106753
0.0703511
0.201016
0.0713816
0.761691
0.65838
0.433701
0.583132
0.138379
0.104552
0.107392
-9.43857e-05
6.79812e-05
-2.1974e-05
0.0183066
0.0129858
0.0124479
0.19796
0.0700972
-7.15727e-05
-5.13328e-05
2.05881e-05
-3.28933e-05
1.25105
0.754266
1.49414
0.00163865
-0.00277853
-0.00324533
-0.0291263
-0.0259419
0.000565459
0.000154384
0.000233089
-0.863531
-0.777848
-1.28239
-0.00235389
-0.00323636
-0.00438093
1.17544
0.438035
0.0318708
0.173238
0.0207261
-0.0599561
0.00099699
-0.00283349
0.380401
0.437079
0.397054
0.380925
0.409091
0.0693504
0.0682664
0.629281
-0.0649814
0.73396
0.00883208
0.00698636
0.00642853
3.53183
2.80666
-0.382828
3.26653
1.33578
1.16932
0.826607
0.633585
0.0949174
0.0695981
0.0497202
0.0872018
0.0713541
-3.49028e-05
0.000100475
1.37561e-05
0.00324094
-0.017057
-0.0300251
-0.0192574
0.0936903
0.0981533
0.137113
0.129719
5.9554e-05
-0.000443911
9.53824e-05
7.08551e-05
0.00254307
0.000960534
0.000538683
0.206776
0.197254
0.377507
0.302609
0.17836
0.319279
0.287578
0.140634
0.205483
-0.00324564
-0.000564473
-0.00123525
2.15543
1.12286
1.56309
0.00918273
0.00887563
0.00778759
0.0045526
0.0091472
0.0573824
0.0631632
-0.157291
-0.0987882
-0.105089
-0.000133283
-0.000649598
-2.20744e-05
-8.42028e-05
-0.00108038
-0.001034
-0.00201581
0.00529003
0.00777269
-0.000730268
-0.000654167
-0.00198169
0.026498
0.135584
0.0960941
0.0817333
0.0761361
0.119304
-0.121845
-0.159344
-0.202442
-0.171126
0.0281223
0.0513528
0.042951
0.0243677
0.0362195
0.0113863
0.00468721
0.0043774
0.00874732
0.0685386
0.0875886
2.12307e-06
3.80529e-05
2.88752e-05
1.85625
1.66963
1.8615
0.00351385
0.00218185
0.00257117
2.72762
2.77851
2.18242
1.6022
0.687686
0.732142
0.823441
0.851545
-0.00214632
0.00257481
0.00251272
0.00530073
0.000349382
0.00694223
0.00330735
0.0231234
0.0253932
0.0268459
0.0658491
0.111045
0.0951645
0.0789594
-0.00883498
-0.00703538
0.959387
0.825821
0.166449
0.151882
0.119613
0.13785
0.0164004
0.0194985
-0.0200633
-0.0034535
-0.00922002
3.28048
1.07313
0.154705
1.58398
0.0291105
0.015233
0.0371346
0.247552
0.190982
0.144628
0.956098
0.971161
-0.172495
-0.217267
0.0443564
0.020345
0.0592045
0.0394312
-0.284218
-0.952363
-0.41889
-0.647192
0.06799
0.0566464
-0.00348174
-0.00679152
0.809398
0.653531
0.265933
0.483868
0.292186
0.328395
0.341
0.318502
0.46791
0.432163
0.332173
0.37161
0.181278
0.194594
0.175269
0.272395
0.231101
0.219051
0.00697901
0.0158384
0.0124663
3.18871
3.29849
1.87079
2.50616
0.0139511
0.0790603
0.53796
0.477173
0.44337
-0.0045474
0.0845475
0.0361794
-0.0447956
0.0025134
0.00352824
-0.0140774
-0.0106696
0.463621
0.521294
0.345292
0.516873
0.820804
0.375385
0.828246
0.808796
0.0554193
-0.0193986
-0.00520797
0.0100479
0.0986312
0.0791089
0.0814063
1.60228
5.9646
9.46293
-0.0425234
-0.0218811
-0.00833607
-0.0384741
-0.0303104
-0.0692677
0.0226549
-0.0636756
-0.0263646
0.990234
3.52351
2.58351
2.41418
2.32666
-0.0676811
-0.00691746
-0.0244768
-0.0561424
-0.0831247
-0.0916288
-0.0736153
9.58522
0.786717
7.78417
3.90991
1.94304
-0.229135
0.363855
0.296085
0.343719
-0.118428
-0.0202742
-0.0076053
-3.48229
-0.963216
-0.102256
-0.0167357
-0.00661457
0.875408
-0.810178
4.01856
-0.520441
0.266939
0.228586
0.210163
0.21647
0.221692
0.0316033
0.0278073
0.0372233
0.179533
0.158821
0.308346
8.97303
-1.98981
-1.70727
0.469417
0.0843957
0.625665
0.0958769
0.255486
0.205781
-0.0396767
-0.0474982
1.36247
2.10784
3.21953
-0.210008
-0.187043
-0.247827
11.2902
-1.61587
-0.831142
-0.0253108
-0.0222861
-0.0532485
-0.0446778
2.74087
2.35991
2.30978
2.02774
3.22983
4.3142
3.8965
3.71558
0.00514612
-0.00580328
0.0118643
0.280977
0.293912
0.279395
-0.655993
7.37914
0.00230351
0.00165699
0.00483781
0.333449
0.412087
0.289082
0.356165
2.19966
3.31099
2.03073
2.12887
0.909246
0.933638
1.30059
0.538793
0.49311
0.804525
0.739712
0.252836
0.339794
0.236848
0.542676
0.490243
0.419397
0.463823
-0.000360808
0.00146004
0.000114013
6.85983
4.99449
0.00699274
1.08212
-0.648534
0.125186
-0.120298
-0.115191
-0.104427
2.88679
3.67422
4.48858
3.73384
1.47771
1.17279
2.2555
1.74278
0.138851
0.00667928
-0.148242
-0.333321
5.59134
3.19965
3.91913
-0.120244
-0.0121471
0.000193647
-0.000593704
0.0254746
0.284464
0.329972
0.319595
0.160011
0.164247
-0.000938978
0.0453211
0.0386611
0.855063
2.56734
4.53138
0.171104
0.132141
0.113469
0.136436
1.0055
1.11705
1.92356
0.165856
3.14388
1.71131
1.44518
-0.0571444
0.111943
0.069244
-0.0761883
0.0114583
0.351539
0.353533
0.355754
0.365834
0.864321
1.74407
6.40626
-1.22074
-3.22489
0.0435741
0.0674272
0.0801667
-5.37956e-05
-1.86929e-06
-2.89431e-06
0.305737
0.386293
0.338586
0.0291768
0.0483991
0.0206325
-3.4564e-06
-5.67074e-05
-0.000960023
-0.00323797
0.85843
0.882851
2.54054
2.59348
1.47666
2.0203
1.87262
0.908742
2.57513
1.75754
0.285946
0.190944
0.22002
4.836
2.2593
3.84998
1.33253
0.781881
0.899104
1.20486
0.648978
0.435365
3.1057
1.98997
2.52847
2.51405
0.0560098
-0.18613
0.380512
1.35435
1.77917
1.37531
0.443381
0.141028
0.241176
0.0999389
0.084086
0.0951982
3.25324
8.56849
-0.120405
0.0223341
2.13074
1.59882
0.311084
0.249837
0.242383
0.281505
0.0763275
0.0658574
2.73862
2.7725
2.85032
3.12972
-0.034789
-0.0213644
0.0691997
0.0503066
0.104014
5.64115
3.55903
0.798782
0.836444
-0.0139552
0.314287
0.214421
0.182346
0.184204
0.495428
1.23058
0.698236
-0.989111
0.69586
1.89393e-05
-1.35457e-06
0.351819
0.322578
-0.000413114
-0.00239128
-0.00233977
-0.0778939
-0.0415357
0.184931
0.18449
0.0476317
0.122994
0.113485
-1.24641
8.29765
0.000450498
-0.000675574
-0.00109999
0.0697327
-0.0384008
0.0257065
-0.0616371
-0.0387264
0.0675845
-0.613944
1.76502
0.397008
3.27254
2.58543
0.132328
3.39157e-05
3.26551e-05
0.000179886
-0.000822965
0.0726618
0.0493056
-0.0580872
0.0532987
0.45754
0.488837
-0.38447
0.0761868
0.0181485
0.0400266
0.0904999
0.0765753
0.0534663
0.0691962
0.00798563
-0.143009
-0.0974752
-0.0951187
0.0311038
0.211923
0.311922
0.870051
5.63399
4.58395
0.674546
5.5442
4.33715
0.761955
0.509878
0.693875
0.478774
0.435508
0.29068
0.320911
0.285257
0.00116578
0.00214588
0.00115066
0.765164
0.364632
0.00899996
-0.347228
-0.0554634
-0.0846461
0.634896
0.378146
0.198415
0.351329
8.99667e-05
3.99268e-05
2.73073e-05
-0.0199795
0.0698904
1.54593
1.62135
0.578663
0.875402
0.10159
0.0187653
0.0553518
0.061643
0.134448
0.126284
0.144185
2.74858
2.77549
2.70666
2.2431
2.31886
0.000940122
-0.00011531
-0.591742
-0.392196
-0.947227
3.80733
2.14691
7.54945
9.07181
0.145023
0.103384
0.10983
0.291361
0.354395
3.64383
5.87712
1.779
0.194845
0.0333956
0.937676
1.11005
3.48874
6.10193
1.93227
1.41633
0.0757935
0.0953008
0.301166
0.569526
8.89538e-05
8.30837e-05
0.0295704
0.0687391
0.00226704
5.10491
4.73822
8.47311
0.221278
0.0585596
0.0165849
0.0330609
0.229988
0.318426
0.273888
0.298782
0.339728
-0.0308949
0.0389251
0.0157375
-0.0116811
-0.0705578
1.45938
1.65818
1.37527
1.15429
1.43787
1.97534
2.00908
0.291742
0.291556
0.246739
-0.205148
-0.155144
0.0116892
0.408195
-0.0717449
0.000169955
0.0971782
-0.0158031
-0.0901938
-0.140731
-0.123538
0.593303
0.853578
1.08369
0.058381
0.0503087
1.97701
-0.0331229
2.58259
5.86704
4.65769
0.423079
0.20865
0.167774
0.216042
0.1181
0.0546319
0.0785726
-1.67997
-1.4729
9.9783
-0.00232102
0.00273039
2.79449
2.80109
0.00182366
0.52794
1.66198
0.587353
0.659323
0.859613
-0.150203
0.153035
-0.100391
-0.232618
4.81013
1.57998
0.838385
0.601709
0.888779
0.0293514
-0.00517707
4.90259
3.71929
3.2232
0.443564
0.169205
0.000110691
1.03038
0.306627
0.298341
4.69565
1.97124
1.37151
9.33494
0.465539
7.50226
4.44623
0.302845
0.305418
0.00166468
-0.0682866
-0.0769505
-0.0543709
0.0810807
0.0497783
0.0427226
0.241114
0.0853343
0.133386
0.816989
-0.0761614
-0.0766071
-0.0896807
0.0025989
0.00117057
-3.03686
-2.08128
-0.00289912
2.38827
2.00218
1.96696
2.05801
1.73254
1.52429
2.15628
0.0511995
0.296095
3.33696
2.46937
5.43762
0.0909598
0.135048
0.796838
0.0341759
0.136788
-1.06224
-0.745426
3.78422
0.0205196
-0.104292
2.75185
3.33559
2.87756
1.37978
-0.725977
-0.414632
3.24924
3.22307
2.33371
3.29529
3.47466
0.0150604
-0.123572
0.576851
0.631866
0.134131
0.527384
0.638602
0.32629
3.47771
2.98485
2.19313
2.34644
-0.0151321
0.617669
3.95011
0.515654
5.39764
5.76965
0.045805
-2.26347
-0.411359
-0.193949
-0.442612
-0.319739
-0.390053
-0.90197
0.0225777
3.19298
3.25644
3.40435
-1.25809
-0.487958
-0.169848
-0.157512
0.0345944
0.0468485
0.0893374
-0.0127374
0.50385
0.515838
5.15758
4.91718
4.57583
4.41725
4.84879
-0.00507183
0.451704
0.429126
2.75454
4.88334
3.99762
2.01265
2.76014
2.41722
-0.227525
-0.184673
-0.196197
0.613749
1.24356
1.37637
1.10269
0.0874451
0.125841
-0.145318
-0.169853
0.449677
0.503718
0.125524
0.0728638
0.104495
-0.415608
0.00141057
0.0348421
2.26886
2.21407
2.14746
0.00645937
0.0325481
2.56608
4.55343
5.13441
4.00959
2.76483
3.04249
5.01054
3.2033
0.458082
-0.0264002
0.0431523
2.13672
5.54941
5.88102
6.05894
6.82628
0.063459
0.0857165
0.0714745
0.0667014
4.90218
2.95914
4.08777
3.30451
3.40283
0.985161
2.1954
1.58014
3.35071
2.88104
4.20803
2.28311
8.30053
6.05637
-0.0498391
-0.117747
-0.0915962
1.92096
1.4709
0.845707
4.02867
3.88101
0.506245
0.143605
-0.0170147
0.997323
10.9393
-0.0710569
0.0670347
0.0857694
-0.540586
-0.300893
6.06419
5.19275
2.7937
2.12392
1.87113e-05
2.49975e-05
4.92542e-05
2.19849e-05
8.92277e-06
1.31737
1.96036
4.92871
1.80087
2.81264
2.31953
0.0350075
0.499998
0.0702901
0.0329802
-0.19861
-0.180279
3.96114
4.90634
6.16021
4.04076
2.05833
2.80548
-0.142038
3.38418
0.600703
2.95545
1.36748
0.0573323
0.0691419
2.1734
0.134525
3.80863
5.72217
3.17272
0.115767
0.122611
1.85561
0.14029
0.0555973
0.0259259
2.49877
1.09393
2.00956e-05
0.958584
0.470031
-0.0125038
0.057761
-0.218479
-0.242727
-0.226589
1.93953
3.18617
2.89806
3.20097
3.834
-0.533055
0.0624251
-0.0136902
2.63201
0.0299727
1.67276
4.13028
5.65
-0.488301
-0.281802
-0.470334
-0.845817
-0.532297
2.80924
3.42703
2.82698
0.243508
1.05821
3.2794
0.123108
2.40222
-2.53696
-0.0684618
0.0928953
0.158624
0.0159864
2.44817
1.4623
-0.0248619
3.2623
0.916785
0.197852
1.44285
-0.584858
0.497834
0.175707
3.9976
7.35818
5.55295
0.0669054
1.5084
3.13069
2.78923
4.03284
0.319553
0.150105
SCALARS xy_strain float 1
LOOKUP_TABLE default
-0.324794
-0.122621
-0.000247386
0.00080508
2.83461e-05
-7.01561e-06
0.000618421
-0.00337933
-0.0685082
-0.297459
0.00964161
-0.518658
0.0129687
-0.987997
0.0153021
-1.08458
0.0303394
-1.22577
0.0714842
-1.08403
0.116887
-10.4452
45.3635
-23.9504
22.2596
10.564
41.9778
18.8173
41.6812
-13.7227
25.0912
21.3276
44.1888
24.2586
16.0558
25.2673
24.5556
31.4636
41.2512
22.0124
-0.123218
1.83414
-0.159848
12.7754
11.9349
11.8005
11.5954
11.1837
10.5363
9.02103
8.61442
7.44737
6.9064
6.3849
5.8545
5.5583
4.77543
4.0302
3.6358
2.96317
2.61772
2.29691
2.13036
1.75909
1.54256
1.35845
1.20128
1.0707
0.964749
0.875427
0.783183
0.690295
0.641942
0.600298
0.565127
0.536627
0.515787
0.507326
0.521034
-0.378594
-0.249953
-0.0854658
-0.0739721
-0.0220487
-0.00300161
0.00397726
0.0107403
0.0131526
0.0156834
0.0170678
0.016029
0.0146644
0.0114349
0.0107938
0.0115349
0.0173624
0.0102274
0.00905959
0.007483
0.0125244
0.00409743
0.00236866
0.00107432
0.0063704
-0.000984204
-0.0017848
-0.00237458
-0.00280485
-0.00304491
-0.00313109
-0.00311864
-0.00296766
-0.00269603
-0.00226275
-0.00166467
-0.00173514
-0.000160094
-0.000149549
-0.00165517
-0.00185914
-0.00232531
-0.00231278
-0.00257203
-0.00181681
-0.00032524
0.000439308
0.000482262
0.000361065
0.000231688
0.000117845
3.26995e-05
4.10496e-05
5.53249e-06
2.21251e-05
-3.97556e-05
-3.62919e-05
-3.20961e-05
-5.69113e-06
-6.69157e-06
-2.57925e-05
-5.03206e-05
-6.4028e-05
0.000119306
0.000259537
0.000441526
0.000399482
0.000612917
0.000755218
0.00246889
-0.000301743
-0.00257406
-0.0183031
0.0104526
0.00859743
0.00331409
0.00854993
0.00434924
-0.00517042
-0.00245962
-0.0107357
-0.0152865
-0.0226275
-0.0310293
-0.0374655
-0.0478934
-0.0559801
-0.0659322
-0.0826243
-0.0494438
-0.0521283
-0.139692
-0.0952223
-0.0530933
-0.090402
0.0217043
-0.0211845
-0.0994477
-0.00846719
-0.205652
-0.148231
-0.096494
-0.0762337
-0.0406252
-0.104801
0.0270899
0.0313228
-0.153483
-0.0598994
-0.267929
-0.183711
-0.13807
-0.10541
-0.0544664
-0.125829
0.0315044
0.0369732
-0.17161
-0.054711
-0.256511
-0.118318
-0.0762088
-0.0289779
0.0214283
-0.0715391
0.0461924
0.0744183
0.0661584
-0.115705
-0.617199
-0.48058
-0.265833
-0.178675
-0.0445898
-0.269779
0.112803
0.153946
0.19834
-0.0654494
-1.61713
-0.293004
-0.0420862
-0.00211956
0.0162852
0.0207066
0.0112068
0.00138421
-0.0607461
-0.0900993
-0.222928
-0.281705
-0.471476
-0.63297
-0.406688
-0.567489
0.387096
-0.102783
-1.4309
-0.58192
-1.46835
-0.65401
0.682223
1.12424
3.76289
8.40545
7.3506
-12.9261
1.77317
-0.750018
11.1752
6.65148
3.92034
4.99392
7.57174
14.3364
0.00718044
34.8725
-1.58312
1.5017
10.2794
5.17914
2.97124
2.80645
3.57574
13.42
4.27681
-17.5356
0.209742
0.520065
7.45507
5.58607
4.50385
5.44622
7.99222
14.2384
0.59547
-15.5688
-6.93323
3.14307
21.7641
3.49279
4.58446
3.9541
-0.522591
1.91735
-8.70998
-6.42642
-4.08789
2.73507
6.77989
4.89138
3.55605
3.89386
5.5791
9.61882
0.455608
-9.9563
-7.16411
1.57551
15.3367
8.12456
3.16276
2.09832
-3.91281
-2.27057
-9.75426
27.847
2.94561
-0.138184
10.178
8.32188
4.88181
5.07681
5.48047
9.37916
0.0567911
33.8731
0.171941
1.72261
11.8499
9.8038
6.55859
7.19629
8.98252
16.2711
0.117358
-15.4283
-5.06225
0.739646
16.1006
5.7953
2.73833
2.02379
0.153545
0.407666
-0.19644
-0.283334
-0.211963
0.708122
1.82676
0.19263
-0.0334901
-0.295326
-0.181837
-0.288273
-0.163051
-0.257769
-0.722874
-1.18086
0.0574649
-0.204742
0.0462716
0.0916222
9.3112
-2.13723
11.5531
14.5012
12.0717
13.5016
-0.100043
0.0110969
16.0566
-0.642761
-0.489689
-0.583667
-0.51235
-0.573463
19.4187
11.8133
7.83049
9.9842
8.14873
-0.000949831
5.48422
-1.41102
-0.949031
-0.634504
0.052949
0.0541875
0.700164
2.4262
0.0762508
0.126646
1.4137
-0.315619
0.974291
-0.747804
9.5869
-0.00352907
0.0162095
0.534841
0.654954
0.0271309
-0.903933
0.149967
0.221059
0.213321
2.61613
0.0268261
0.0118129
3.66308
4.31053
5.19432
0.356437
0.358653
0.262833
0.00747867
9.69913
0.0608524
0.046686
-0.335875
-0.417713
-0.292339
-0.168939
-0.0331309
0.173634
0.216301
-0.573631
-0.134574
-0.390401
-0.245378
0.750507
0.575793
3.75405
3.55187
4.33953
5.1106
9.20785
7.40112
11.4605
11.6046
0.0313958
0.002611
-0.572656
0.247276
0.730659
12.1486
0.312595
0.3903
13.4531
13.6877
0.0102387
-0.253414
8.59646e-06
0.853859
5.40914
8.46648
8.69097
9.00042
0.219751
0.859512
0.611834
1.26674
1.68396
2.5516
2.19764
2.36945
0.358288
0.264536
0.179226
0.00241133
1.12502
7.38185
0.258696
0.549539
0.336505
0.588937
-0.6906
-0.631098
-0.952753
0.00682784
0.00104691
-0.278865
-2.48926
-0.00713831
7.53004
11.525
-0.580042
18.6
0.172803
0.227252
-0.393048
0.241381
0.3478
0.469561
-0.993115
3.4815
4.13026e-05
14.936
6.32144
8.14755
8.48961
7.6538
0.409686
-2.39747
5.12744
6.31343
5.86084
1.56149
-0.209505
-0.453455
-0.343249
0.472041
14.2866
8.16923
8.68874
0.108635
14.6719
13.4863
-0.638155
0.823571
0.0972304
-0.000289762
-0.00272654
0.00866486
-0.650536
6.83176
6.43343
5.15201
11.1181
5.49239
3.00179
3.2174
2.26736
1.86396
0.523474
-0.70438
9.0295
0.00155854
-0.00132212
0.0138894
0.169841
0.268434
0.311398
0.322687
1.14853
3.16744
-0.00814128
4.4025
16.8569
8.65583
9.72481
11.2715
11.0951
4.45334
0.000224146
6.81763
-0.564257
0.207532
8.25729
-0.00015534
-0.236876
-0.377152
7.27462
-3.103
-0.353153
-0.51259
12.1954
0.0262227
1.78304
9.40025
0.797135
0.606874
1.38292
10.9611
8.92297
10.3358
10.2316
12.2668
-0.839285
3.70725
-0.368554
0.535237
0.461847
0.103035
12.375
12.4042
12.568
0.064996
0.0619843
0.151378
1.13351
0.197895
-0.171478
1.34925
1.78414
-0.361486
1.10299
0.588958
-1.16709
-0.221114
2.55643
0.120525
0.853103
1.93761
-0.126407
-0.0337798
-0.00100483
0.0768321
0.818199
-0.749554
0.00859009
0.0275814
0.0994232
0.0913748
0.0707842
11.5985
11.5579
2.96309
1.46878
-2.55075
0.303064
12.7166
12.7973
13.0691
15.6415
0.0234646
16.7583
13.5569
-0.00758918
-0.00949378
3.99165e-05
-6.02446e-05
12.8279
-1.34962
0.117648
-0.000405647
-0.000182066
8.72203e-05
0.00301055
0.00942353
-0.281837
4.81346
0.263819
1.40164
0.0453045
-0.00839146
-0.00317896
5.28068e-05
-0.00739505
0.00727611
0.00804026
4.52207
19.1973
-0.134086
0.0412953
7.41228
7.31116
-0.81297
-1.18313
-0.662239
12.1314
0.0057367
-0.00691698
-0.00841262
4.81544
0.212999
0.316939
3.48452
-0.740909
-0.671983
9.72824
2.67699
5.09906
8.91937
0.0211639
0.356726
10.2258
-0.269163
7.57715
0.97326
-0.31119
-0.38668
2.90478
-0.412933
0.0416677
0.137965
0.429414
-0.780913
4.65193
10.9747
0.93762
0.357889
0.435288
0.417388
13.8063
0.00864415
-0.445224
0.82133
4.37666
-0.660771
1.11149
0.0911774
2.94484
1.96063
-0.000103763
13.6474
1.57445
7.30529
-0.455857
-0.292011
0.478915
13.6867
6.82911
9.89132
0.0533101
0.45117
6.59666
3.51258
9.01321
0.0104248
0.0140664
8.79589
0.69796
-0.464783
-0.267232
-0.179187
1.06568
12.2763
7.48435
0.122938
0.0647234
7.44857e-05
10.8961
5.84028
5.88506
0.030265
0.162626
9.20682
0.502658
7.58771
-0.00327131
0.00513088
0.00969581
-0.686326
8.01341
0.656949
1.36536
0.703869
0.0438857
12.2387
-0.541755
-0.076773
-0.252483
0.026007
0.923224
7.96143
-0.223433
7.28102
3.02235
11.967
14.8852
0.520699
0.00712719
9.81666
8.42489
0.378063
-1.60064
6.09968
-0.345998
0.341759
-0.00865268
-1.86443
-0.856927
-0.325309
-0.000781709
-0.549529
-0.452431
-1.08301
-0.335812
-0.00450371
8.475
10.888
9.61832
1.48212
17.2486
-0.849104
-0.400867
14.2181
11.4861
2.49733
1.04279
5.39457
-5.62493
2.36376
0.060825
13.1392
0.0389485
-6.58888e-05
0.6109
3.60484
8.70958
5.00291
6.17338
3.01294
0.177849
-0.000121857
-2.23252
6.90772
-0.000115737
4.97687
-1.2475
0.120892
-0.469294
-0.520127
-0.000105314
-3.89784e-05
0.000103318
-8.42081e-06
2.06369e-05
7.21478
6.19851
5.11252
7.30286
6.08759
0.0219613
0.0151815
0.0426888
0.0471893
0.0404999
-0.927022
-1.08304
-1.18021
-1.3579
-1.29968
0.170916
0.165074
0.0850377
0.0504612
0.102367
2.16545
3.01657
3.41632
2.89652
2.96975
0.00348511
0.00689207
0.00430129
0.00133685
0.00285939
-0.420101
-1.08963
0.165815
-0.179436
-0.452951
-0.000708085
0.00108662
0.000420919
-0.000402498
0.459984
0.0889462
0.144476
0.905724
0.456454
-0.213041
-0.167034
-0.313833
-0.372753
-0.286351
-0.000566208
0.00622833
0.00878265
0.00230332
0.00606653
-1.20312
8.00494
13.7511
3.58245
14.2621
9.50403
13.6224
17.3128
17.2762
-1.08284
-1.43393
-1.57088
-1.49325
-1.69157
15.3443
14.2487
17.2828
17.2457
0.163185
0.139982
0.0788752
0.0649999
0.088892
1.74991
1.34655
0.620361
1.00625
1.04281
0.300519
0.211732
0.121846
0.127366
0.165185
0.0437075
0.0223695
0.0276346
0.0405342
0.0371475
1.89114
1.37445
1.00226
1.78387
1.33078
2.07715
2.20171
1.60343
2.0091
-0.601313
-1.05957
-0.879773
-0.447893
-0.754687
12.4972
2.32451
-1.02693
6.31085
2.62635
0.0253397
0.0083855
0.00337964
0.00734271
0.0674181
0.169002
0.168138
0.0822773
0.110086
11.4749
10.7795
9.73158
10.5708
10.5628
1.84906
0.673288
0.420985
1.4031
0.847086
0.0542815
0.0401606
0.212666
0.130039
3.12298
1.52158
0.330768
1.00434
1.13836
0.202752
0.259733
0.217244
0.17883
0.0955422
0.0327927
0.0395884
0.0662459
4.15649
2.96914
4.74196
3.15234
1.35966
0.728422
0.0566753
0.547706
-0.0775205
0.153392
0.0878068
-0.0469986
0.0234197
0.0524291
0.0178583
0.00501971
0.0211714
0.0195531
2.43542
3.22628
2.69518
3.07411
0.156508
0.130852
0.0498458
0.0652632
0.0767309
-1.69479
-13.3669
16.3404
2.04117
3.67003
0.122598
0.293405
0.259105
0.183221
10.9039
3.91361
12.4054
11.3027
12.2523
0.103281
0.0316353
0.0631593
3.94831
3.97051
3.54095
3.71444
0.0182475
2.76666
1.56188
2.03595
1.54325
1.58473
1.6971
0.188662
0.129262
0.0495425
0.0917198
9.12625
8.6372
8.65905
8.8968
8.7266
0.0424659
0.0519609
0.0932417
0.0760137
0.217291
0.151794
0.264003
0.218696
0.137154
0.110778
0.126741
0.173196
0.148049
13.9852
14.9879
10.4641
10.4094
11.5951
-0.127483
0.0162551
-0.542931
-0.500141
-0.337375
-0.456746
-0.457647
0.21793
0.0522948
0.107687
6.94014
7.1732
7.82569
7.42785
-0.00882352
-0.00739443
-0.00282938
-0.00444914
-0.00588469
0.0892553
0.160713
0.0849822
0.120369
12.6824
13.2189
16.0129
11.3658
14.481
0.185238
0.226334
0.169682
-0.00555836
2.91052e-05
0.00107432
0.000133075
0.00405058
0.031578
0.000757983
0.0125255
2.16683
12.9722
13.2613
14.0666
14.6216
13.7264
0.0722018
0.0894798
0.0791995
0.0598251
0.0302157
0.0423754
-0.0572412
0.102287
-0.0296006
0.00833339
3.80772
5.14173
5.61384
5.30625
0.00832718
0.00280314
0.00209783
7.53595
8.22024
8.32053
7.38119
7.9968
0.00612549
-0.00188829
0.0150406
0.0139831
0.0162435
0.0994242
0.139771
4.4174
3.66769
3.94982
-0.653111
-0.633166
-0.641637
-0.831541
-0.760528
0.0645237
0.00636035
0.021361
1.19047
1.26337
1.33639
0.0584434
0.0442892
-0.724708
-0.633042
-0.56838
0.00974516
0.0826201
0.00720196
-1.17321
-2.52846
-0.548422
-2.04348
11.6297
12.0772
9.53466
8.95971
10.2061
2.15217
1.68161
1.42715
1.54566
6.49189
5.8544
6.41085
0.947964
1.07547
1.06052
0.0341774
0.0835195
0.0733395
-0.00243128
-0.00192284
-0.00466075
-0.00504689
-0.00451156
-0.292065
0.201843
0.455102
-0.219916
0.0673527
0.00407975
0.00166192
-0.00384546
2.75974
3.53619
0.041712
0.050995
0.0845587
0.00318789
-0.00340829
0.0157442
0.00314103
-0.070589
-0.0343885
-0.0926839
-0.0451736
0.616624
0.72012
0.644477
0.697289
-0.67024
-0.630026
-0.719133
-0.791721
-0.695108
0.560078
0.55728
0.598393
5.19576
8.07684
8.21611
8.9096
0.0506625
-1.29047
-2.79177
-5.77058
-4.31144
-0.313761
-0.336491
-0.376162
-0.363118
-0.405643
0.150023
-0.0147043
0.325313
0.478103
0.394768
0.800828
0.834694
0.892724
-0.00252676
-0.0155824
0.0101519
0.1133
0.222174
0.161126
0.183098
-0.0179828
-0.0279739
0.000557508
0.00234475
0.00765344
0.00657929
-0.0555536
-0.0020135
-0.68175
-0.611936
-0.585184
-0.675437
-0.667343
-0.1836
-0.126335
-0.0920363
-0.112391
-0.127033
0.0576544
-0.370318
-0.321304
0.213536
-0.0433754
0.246613
0.185218
0.601944
0.547795
0.522627
0.571398
11.4085
9.13147
10.6231
12.2879
12.3307
1.28754
1.32342
1.5147
2.29328
2.06221
2.42629
2.47102
2.86669
2.51017
2.41521
0.370138
0.332318
0.231652
0.000285413
-0.000160956
8.80825e-05
0.0847852
0.156416
0.0954299
1.82584
2.24191
-0.000145966
0.000160276
-0.000123685
3.07993e-05
7.87217
7.25963
7.16818
0.00600538
0.0101639
0.00579139
0.0332909
0.0416945
0.000638368
0.001353
0.000916945
4.99621
5.45944
5.51311
0.00308712
-0.00317648
0.00439715
2.31318
1.27665
0.0889414
0.261843
-0.234969
-0.228469
-0.477041
-0.405595
0.133222
0.619548
0.939124
0.380915
0.599944
0.0383606
-0.0107573
-0.600714
-0.207609
-0.947941
0.000100399
0.00509883
0.00920328
12.0328
10.6548
8.69219
12.1438
11.169
-1.89446
-0.25598
-0.389126
0.887941
0.950967
0.791698
0.704793
0.806989
0.000145747
8.29852e-05
0.000225744
0.309923
0.356406
0.311593
0.275714
-0.403812
-0.501778
-0.484328
-0.449149
-8.0594e-05
8.61285e-05
-5.75322e-05
-7.54082e-05
0.00088316
0.00414447
0.00041789
2.17514
1.96622
1.32796
1.69995
-0.946915
-0.663379
-0.676437
-0.85073
-0.843455
0.0022498
-0.00901756
-0.0083895
18.3069
13.3896
4.63044
-0.00377209
0.00368195
-0.00592952
-0.000865324
-0.000866235
0.0459474
0.0448657
0.4934
0.530196
0.54815
0.00312894
0.00142161
0.000137524
0.0007563
-0.00810758
-0.007685
-0.00589801
-0.00649874
-0.00387266
-0.00733521
-0.00532033
-0.00348624
1.12903
0.994286
1.21488
-0.733642
-0.679997
-0.723107
0.165413
0.30661
0.27803
0.195314
0.211225
0.292734
0.358511
0.303756
0.30043
0.00605445
0.0116633
0.00747335
0.0097023
-0.0823968
-0.118555
9.88092e-05
7.30414e-05
0.000119587
1.62911
-1.25295
-0.761134
0.00632941
0.00692901
0.00104896
8.96207
11.7495
13.8944
13.3188
-0.132928
-0.334865
0.00279723
-0.0438268
0.000965957
-0.00556239
-0.00820656
-0.00528681
0.0104891
0.0117385
0.00335356
0.197584
0.117007
0.172338
-0.322053
-0.31192
-0.346017
-0.387025
0.0246877
0.0318248
-0.260157
-0.199204
0.434751
0.57077
0.495185
0.472344
0.676777
0.763514
0.786372
0.0144206
0.0300044
1.15206
8.577
3.85174
5.60921
-0.302918
-0.24042
-0.137719
-0.50193
-0.48859
-0.616738
2.17346
1.41348
0.482636
0.465717
0.476526
0.371557
0.407934
0.371289
7.26098
6.87629
6.83092
6.96571
0.330075
0.280172
0.00233156
0.0169704
2.61394
3.8733
3.84737
3.57515
-0.663903
-0.575354
-0.520037
-0.623519
4.67376
4.76226
5.64401
5.47771
0.282409
0.524712
0.41245
0.32717
0.283232
0.129983
0.213449
0.364107
0.303818
9.00325
10.5375
9.15566
9.50064
0.19481
-1.12917
-1.41213
-0.576256
-1.12939
-0.465593
-0.495936
-0.515749
-0.713336
-0.572041
0.000667588
0.0106651
0.0240726
-0.794651
0.034578
-1.56975
-1.30236
6.65053
6.15131
4.91759
5.66234
-0.64209
-0.605749
-0.624151
-0.657954
0.433372
0.381378
0.306367
15.0724
13.8955
5.75412
0.416367
0.408374
0.473314
0.530698
0.489109
-0.368298
-0.333813
-0.507486
-0.484654
9.62728
9.18648
7.68278
9.27823
9.59485
-0.102623
-0.195019
-0.0956634
0.281147
0.340237
0.267712
0.261744
-0.566417
10.1893
5.81161
-0.805717
15.1275
19.225
0.166445
-0.220777
-0.0581347
-0.189594
-0.320155
0.0536117
13.9393
15.3501
-0.160921
-0.263993
0.0459183
14.323
16.3275
7.12173
9.89823
0.545043
0.792655
0.642336
0.347314
0.491986
0.0434582
0.0784191
0.10506
3.38803
2.8898
2.2824
-6.60378
19.4311
16.3527
5.1557
4.81174
4.21091
-0.773425
-1.22072
-1.12125
0.361057
0.280304
1.86204
-1.11812
0.707189
0.122621
0.369745
0.311342
-4.13113
24.5808
18.5733
0.0916334
0.00796309
0.0173581
0.0428402
8.22072
8.62865
9.83529
10.5258
13.8212
12.6819
14.0389
13.5239
0.461627
0.403871
0.377214
0.286041
0.649592
0.504998
17.1482
10.5528
0.0110988
0.00748251
0.00729477
1.1201
0.998661
1.59452
1.26399
5.92167
6.55627
8.24425
7.36829
0.0186846
-0.0890811
2.18548
3.42774
3.83067
2.17984
2.98463
0.18007
1.06378
0.595691
-0.239411
0.229946
-0.301432
-0.175042
-0.00188368
-0.00422509
-5.81912e-05
14.466
18.4365
-0.000294336
2.33989
6.92723
0.026971
0.308793
0.198752
0.235354
10.2947
9.64274
12.4929
11.5945
4.63757
1.47984
5.7451
3.38927
-2.23128
-2.01461
-0.304286
0.176642
14.7177
13.2093
7.88668
-0.756529
0.198913
-0.00665844
-0.00209722
-0.254197
0.088942
0.520776
0.286464
-0.156573
-0.105455
0.00106514
0.698274
0.789901
14.0302
6.89273
5.71664
0.680489
0.808154
0.689425
0.685854
9.13952
8.71354
9.41827
10.9774
2.09615
8.45745
8.8908
-1.34638
-1.56445
-0.50498
-0.589693
-0.671776
0.795239
0.611415
0.201603
0.410529
10.5078
8.91897
-6.32432
17.4344
19.3496
-0.354208
-0.612705
-0.519578
-3.90882e-05
-8.19586e-05
-5.31049e-06
1.70524
1.23387
1.10892
0.543615
0.622619
0.668609
-0.000134483
-6.43667e-05
0.00043852
0.00142796
0.0814297
0.0743933
12.546
12.2848
11.1081
11.913
11.7275
12.4019
12.997
11.9589
0.0073921
-0.165931
-0.127171
12.9662
21.4358
17.9543
16.3353
1.73951
-1.54677
0.667788
3.1067
1.22334
5.51722
3.85616
3.48264
4.48856
6.12691
6.09992
5.63512
10.3167
12.7555
10.7391
0.158722
-0.477234
0.22609
0.600919
0.526576
0.44806
15.2589
4.06613
0.159532
0.0894252
4.06393
6.11278
0.62801
1.08629
0.907087
0.847136
0.46164
0.397989
12.1934
15.1245
13.0234
13.9537
0.403181
0.368208
-0.518967
-0.508049
-0.501835
13.7746
14.3168
0.149074
0.0392255
0.00575756
1.69649
2.1429
0.836965
0.662874
4.11642
3.77869
3.43224
13.4375
12.6812
2.48965e-05
8.82974e-05
0.774587
0.575476
0.0079257
0.0103416
0.00728544
0.51835
0.541057
1.08307
1.30715
-1.02541
-2.38004
-1.66491
15.5136
13.2093
-0.00937505
-0.00888782
-0.00774636
-0.473752
-0.473401
-0.549929
0.415032
0.40439
17.4217
19.5704
21.0103
18.7104
8.84418
3.46416
-0.0442113
-1.10785e-05
4.03728e-05
-0.00819147
-0.00785844
-0.429207
-0.699773
-0.815711
-0.799365
0.825937
0.271676
-0.67208
-1.38907
-1.22063
-0.264975
-0.38904
-0.352432
-0.959765
-0.49268
-0.747841
0.453898
0.414926
0.512553
0.0421204
2.4543
1.70137
5.28875
10.36
12.4141
12.2737
10.9459
12.8385
0.125808
-0.299452
-0.0861134
0.358424
0.978359
-0.0541241
0.0560505
0.0461737
-0.00823665
-0.0053857
-0.00727009
15.378
7.04123
7.34295
7.01421
6.51958
6.76321
7.46621
7.1085
1.82745
0.809693
-8.54223e-05
-0.000118331
-0.000155408
3.53189
2.96955
10.8053
11.3209
9.83472
10.4226
-0.200599
-0.0615321
-0.187983
-0.13139
-0.203157
-0.262054
-0.200506
13.3742
12.4819
12.7844
12.5406
12.8857
0.00587048
0.00360421
5.81125
6.19475
6.51551
8.76136
1.7839
-7.29772
2.06578
-0.273513
-0.362646
-0.328211
-0.0918569
0.198243
9.61836
9.72707
6.10678
-0.857438
-0.986399
-2.12869
-1.58477
9.02575
13.2122
6.4606
1.34963
0.620247
0.615949
-2.58012
-2.35806
-4.04009e-05
-8.95633e-05
-0.300095
-0.497247
-0.00110835
2.49014
-3.79097
1.62644
0.318744
0.539566
0.525476
0.532935
-0.915363
-0.626079
-0.738059
-0.548592
-0.436865
-0.495566
-0.520694
-0.948243
-0.766451
-0.706722
1.52066
3.21141
3.16537
4.10784
3.76114
3.21418
3.76941
-0.173701
-0.103815
6.01718
6.58277
6.27688
0.0103669
-0.361047
-0.283638
0.0927578
0.635349
-0.38419
0.0404552
0.0513391
0.0482245
4.71979
4.0768
3.96817
-0.852303
-0.709065
13.5885
14.3808
5.82109
9.8313
7.94405
5.31424
5.78694
1.05029
0.849879
-0.311441
-0.306432
-0.338824
4.56171
12.8469
4.11727
0.00842688
0.0129131
9.72263
10.8952
0.472886
-2.54866
0.842853
8.5269
8.02832
8.34902
8.0522
8.47539
8.87092
8.35192
5.55366
8.11075
7.79192
7.6483
7.94983
-0.55398
-0.471588
8.46575
8.43562
8.04991
2.94401
1.76204
-7.24387e-05
-2.00223
-0.469991
-0.565614
1.59057
1.27598
-0.626807
12.573
9.36481
10.0398
6.69729
-0.296135
-0.375753
0.00702077
0.0454835
0.0304476
0.0111425
-0.283789
-0.223085
-0.265614
-0.358294
-0.521097
-0.499942
2.58145
-0.00132607
0.0515098
0.0364829
-0.00508893
-0.00895391
8.86485
17.5564
0.00987519
8.51198
8.87942
8.53093
4.45672
3.77598
3.43731
4.20663
0.0426909
-0.225936
8.89011
7.83645
0.561926
-0.21531
-0.216658
0.179941
-0.977624
-0.870256
14.492
21.4562
9.97801
-0.567548
-0.0606421
12.2558
12.8043
12.7566
18.9932
15.926
15.872
10.9633
11.9868
9.15374
7.0537
9.00393
-0.691355
-0.0628539
-0.501188
7.70045
7.92765
7.84582
9.36324
9.46043
8.79182
9.90017
8.11194
8.38219
7.52879
7.69297
11.3221
8.41899
-3.66681
3.87281
-0.98472
12.4524
-2.16317
0.164779
6.58116
5.68006
6.18698
7.01662
15.4897
11.1015
11.0266
8.76038
3.38801
11.5049
0.0409419
0.0481311
-0.558819
-0.35904
-0.400503
-0.399663
4.05592
4.50359
13.876
11.9804
15.7166
12.5058
13.018
13.7554
0.592028
0.956413
12.2295
11.9461
12.572
8.84475
8.58813
8.90621
0.0329612
0.0321763
0.110946
4.24527
3.50877
3.51189
3.36968
-0.262553
-0.269781
0.327001
0.45678
4.99974
3.95992
0.970201
0.9981
0.896239
6.8376
-0.497085
-0.404461
8.11222
8.15477
8.56886
-0.395461
-0.317987
14.4701
15.3372
19.2618
17.8383
12.2942
13.26
11.3825
11.5533
0.549489
-0.375115
-0.336502
8.18738
13.1167
11.5625
10.4136
10.7685
-0.22195
-0.265382
0.612702
0.534039
12.6022
13.085
11.614
12.0607
11.3016
9.70406
11.6195
10.7286
6.79509
2.08033
2.77581
0.781405
4.54411
3.288
-0.401426
0.359241
0.35975
4.33717
3.74883
5.32786
10.3145
13.2141
4.69744
-0.741817
-2.14355
10.8091
2.33245
0.0545961
0.625737
3.68981
4.64325
3.98261
20.6887
15.2419
6.66978
7.57831
-7.39484e-05
-0.000111024
-3.15391e-05
-0.000105042
-6.8203e-05
5.04071
4.46665
20.5242
2.73494
12.375
11.9606
-0.506335
0.00291068
-0.647086
-0.631999
0.0208884
0.0313643
9.34189
7.93969
9.44452
11.938
9.00124
10.1845
0.311759
6.50189
9.36476
6.13781
5.2325
-0.154393
-0.194455
1.49239
-0.269581
10.9482
11.3544
8.68273
4.55361
3.62224
8.50051
0.98872
-1.08058
-0.974909
2.09108
4.81955
-0.000111495
4.8365
4.65432
7.6178
8.29144
7.78966
0.0185589
0.0204326
11.357
12.7344
12.4155
11.6294
11.4457
5.50593
4.88914
7.57927
12.3463
1.06197
6.63342
12.651
15.0888
0.02405
-0.0140008
4.91087
4.91968
5.45224
13.722
13.2659
12.3601
8.61585
9.43772
13.5456
8.35607
2.61902
8.29246
-1.89781
-1.15691
-0.982918
-1.1552
12.1709
10.8059
-0.0303328
2.62876
1.96494
-0.830333
-0.901903
0.15897
1.49019
-0.833905
5.42766
3.00985
8.35581
-0.601196
3.34286
12.4493
12.3399
6.12496
-0.166142
-0.368716
SCALARS x_stress float 1
LOOKUP_TABLE default
-84231
-10566.5
4.1558
533.101
-1.07851
-0.135611
0.4414
-656.28
-4199.27
-15197.9
1056.09
-38601.3
1262.21
-37475.9
1471.95
-40404.8
1968.75
-108748
4935.02
-254838
24105.3
-354794
-4.19912e+06
-866630
-3.42851e+06
-2.17412e+06
-4.58292e+06
-488520
-4.48077e+06
-884900
-4.44546e+06
-172934
-4.07247e+06
-423285
-4.90808e+06
-261596
-3.27968e+06
1.72654e+06
-4.52493e+06
1.0996e+06
-8170.4
3558.16
-5761.38
100041
89629
74309
32435.3
26959.2
11912.2
-15486.3
-21824.7
-35491.8
-37905.6
-37688.5
-35577.2
-33892.9
-57397.5
-24211.7
-45573
-16164.5
-13566.9
-11004.9
-10120.4
-7194.79
-5841
-4778.39
-4073.54
-3507.96
-2913.91
-2546.48
-6129.35
-2225.45
-2254.27
-2362.65
-2583.33
-2947.8
-3489.85
-4268.12
-8517.08
-17638.9
2758.77
5648.03
1414.14
1644.81
176.722
161.505
113.961
-24.0222
87.3608
-80.7155
-24.7617
-69.8158
-31.0041
65.1836
91.4715
12.4782
37.9976
30.1546
9.79029
64.0599
1.4202
3.96545
11.5273
62.0507
18.1109
20.1838
14.9
11.7351
5.67656
0.679533
-1.53347
-3.76914
-4.36754
-4.3516
-1.0307
17.3042
11.5895
6.2379
176.612
171.897
330.302
495.739
655.12
988.172
11.6136
4.2492
-7.56079
-6.03395
-4.41359
-2.3413
-1.20639
-3.82534
-6.76298
-6.53588
-5.8078
-3.16959
-3.31009
-0.145905
-0.266442
-0.621069
0.213865
0.67859
-3.1628
-2.54607
-1.85155
-4.37741
8.41406
-11.8801
3.97612
19.6211
93.1003
292.733
-3950.61
-7709.38
-9759.19
-12174.5
-14368.4
-14212.7
-18315
-18211.3
-21728.3
-21662.3
-23988.9
-23944.7
-24037.6
-22637.1
-19562.8
-14282.9
-4999.04
-4910.25
-15759.9
-7546.95
-1546.21
-1339.98
752.376
3.26608
-186.935
616.063
-37732.5
-37192.4
-14446.4
-6653.03
-517.628
-591.452
874.516
41.6023
-1072.2
35.9262
-43709.1
-28852
-17468.8
-8012.81
-730.802
-849.817
1028.34
36.7174
-1298.67
572.73
-40460.5
-19673.4
-6471.38
2368.15
6252.84
6003.62
1199.81
349.08
-3418.65
-3605.97
-101176
-99987.8
-29240.6
-5920.07
9331.62
8995.37
3336.89
1026.89
-4568.16
-3259.08
-400320
-286321
-276073
-274562
-275211
-275126
-277609
-277561
-274772
-274830
-255348
-255395
-196053
-195365
-47222.3
-62006.4
16603.7
11374
11376.9
-27086.3
-1.1172e+06
-1.12016e+06
-1.10631e+06
-1.1047e+06
-1.57918e+06
-1.35691e+06
-4.31367e+06
459155
100754
34664.3
230670
-373945
-939708
-1.28502e+06
-1.80099e+06
-1.81385e+06
-3.56042e+06
-740180
133693
6407.33
276138
-361470
-684754
-950012
-1.2715e+06
-1.27115e+06
-4.74827e+06
703142
190619
64498.5
-146178
-132921
-880375
-1.25009e+06
-1.81741e+06
-1.81976e+06
-4.70414e+06
548866
114598
146595
1.60164e+06
25920
10290.4
-429095
-1.18427e+06
-1.22389e+06
-3.89823e+06
460153
164735
74036.7
74772.7
89439.7
-659219
-983053
-1.44893e+06
-1.44849e+06
-4.26943e+06
273960
124819
113350
482936
29387.3
-361447
-331826
-1.40059e+06
-1.4392e+06
-4.13673e+06
-2.10191e+06
158358
-261665
368777
384219
-551192
-945223
-1.47585e+06
-1.4705e+06
-3.36106e+06
-1.13245e+06
107045
-308948
443000
455589
-634871
-1.14881e+06
-1.83455e+06
-1.83673e+06
-4.73264e+06
548634
93156.4
53266.7
935269
423799
148714
103317
-26419.8
-29675.5
-5517.09
177.413
16229.5
17731.4
-18328.6
-64107.5
-75606.2
-68823.4
-41248.7
-39621.8
-1629.97
-17197.5
2289.07
-6825.88
-16.509
-287726
-8462.41
-269427
-176865
-848645
-239605
-258521
-322557
-303941
-27469.7
-98.1932
-65433
-40029.1
-46162.1
-44973.2
-50738.6
-52149
50954.6
-489995
-510814
-460789
-467729
349.842
-633121
-105143
-100231
-123642
-70.7915
-16460.3
-604984
-658674
-5856.06
-7984.87
-26172
-22284.2
-16910.5
-270327
98887.2
-52.03
-23641.5
-5046.15
-11508.7
-121.72
-47842.1
-5454.51
-7809.12
-9194.92
-70799.6
530.181
-34.8128
-773594
-613737
-97435.4
-8207.4
-10788.3
-4990.34
21.6947
-618801
-3443.52
-1712.91
-34556.9
-68089
-64599.5
-77401.9
-70830.2
-82967.3
-76063
-117398
-60149.4
-117014
-129047
-84026.2
-64334.2
-618144
-558446
-498438
-433387
-646010
-675248
-256609
-252107
-1491.21
53.642
-74441.1
-55203.3
-52389.4
-541625
-46780.2
-42418.3
16831
-51942
-1138.92
-24358
-4.44541
-90032.6
-505387
-217338
-380376
-347187
-164267
-150047
-180194
-164659
-178476
-151381
-134274
-172268
-6267.76
-3812.46
-2492.31
-637.524
-84767.6
-584408
-36359.3
-34907.7
-31045.1
-25259.1
-47159.2
-52479.6
-57148.1
-604.192
325.329
-29702.6
-136893
161.183
-172402
-717307
-33170.1
-35839.3
-1805.29
-1848.67
-22195.2
-13008.1
-15292
-11535.3
-52166.7
-134125
3.95956
72969.5
-574268
-386831
-322822
-288309
-23777
-249669
-422511
-343623
-337515
-743149
-24516.1
-33783.4
-37150.5
-16854.1
166952
-194155
-263030
-1244.99
-302058
-230958
-209750
-41277.6
-1571.4
157.172
195.863
72.2358
-95283.7
-253241
-247845
-316265
-471363
-238656
-283294
-408255
-303231
-215145
-130498
-38353
-556815
-409.538
-257.057
-464.443
-817.141
-1632.95
-2154.79
-1501.49
-693526
-214353
-43753.8
-531782
-251029
-188388
-183650
-277114
-301002
-223928
204.397
-373783
-47198.7
-14845.5
-333522
-0.786587
-31204.9
-514951
-493636
-199772
-22239.6
-32578.6
-508029
5014.82
-36332.4
-583440
-28384.9
-19507.1
-56153.6
-435477
-326285
-271617
-278585
-472791
-97207.1
-79632.8
-44289.7
-11572.3
-10192.4
-11967
-208349
-142033
-97223.3
-697.539
-1276.32
-3667.93
-19495.1
-24770.7
-33888.5
-117811
-84064.5
-29764.6
-198966
-6653.14
-50379.8
-13538.9
-487517
-334412
-297962
-282722
-44481.3
-27162
-32306.1
-29494.1
-12762.7
-60373.9
-999.536
-347.255
-605.177
-248.456
-643.083
-222750
-144885
-899269
-713689
-335645
-103042
-137770
-106195
-81088.5
-8988.77
-807.693
-33425.3
8089.53
-59.2977
-38.1044
15.1994
10.7944
66198.6
-285721
-9317.47
-113.154
-247.643
34.8364
92.0637
53.2165
-265397
-444083
-21012.1
-482597
-20237.9
-6.57555
-99.9156
-1.25913
46.167
239.33
-226.973
-537289
47304
-16365.3
-281860
-661571
-769631
-57130.3
-80657.1
-38105.5
-491996
60.6322
227.443
101.161
-359366
-273092
-17360.2
-173148
-47128.3
-59487.1
263782
47254.6
25088
319888
-221199
-257999
-346670
-40335.8
-221775
-60369.3
-36127.1
-27689.3
-96892.1
-33325.8
27.2542
273.462
-1916.09
-72413.1
-486271
507949
-74815.8
-4149.5
-5584.21
-7988.22
-316369
-181.523
-21939.5
-36480.3
-97821.3
-33624.4
-356327
-2153.63
-398813
-93883.1
-2.24831
-388080
-545025
-243056
-90154.2
-81897.1
-3137.79
-979618
-105253
-113025
-59062.9
-19133.3
-197061
-602464
-316738
-171.839
1786.12
-302446
-16607.1
-44189.4
-181436
-26802.2
-41306.8
-274961
-306585
-111521
-159.685
-4.10213
-42110.1
-159677
-101440
-174.041
-456.485
-363285
-268262
-95692.1
-168.829
-796.9
81.1841
-893579
-501473
-116873
-129705
-19734.7
-9630.39
-339379
-35858.7
-33631.9
-213218
-425.814
-25749.4
-519980
-5410.75
-211374
-549521
-31026.9
-569376
-10206.1
103.992
-331123
-142583
-2430.13
-65958
-337141
-14692.8
18158.9
43.8562
-145159
-374622
-251737
78.3838
-21562.4
-16894.6
-71858.7
-34199.8
52.5665
-312763
51505.4
-55288.3
-88889.3
28631.2
-39648.5
-228328
-463857
454261
-268624
-28419.9
-333381
-273744
-60819.2
-14643.2
-235857
219.711
17.3107
-16939.2
-578822
-135427
-462268
87079.9
-613570
-39590.6
-1.71737
-195944
-899226
-1.74021
-149235
-75342.3
-62489.6
-54737.7
-42633.4
0.739433
3.23058
-3.62365
-3.85316
-3.47763
-444003
-416940
-515069
-511762
-510831
-416.551
-520.631
-1137.23
-873.343
-947.497
-102895
-90141.8
-68660.9
-44171.9
-67873.3
-16449.9
-13601.2
-13133.3
-14352.4
-14466.2
-135457
-144938
-117092
-98563.2
-113079
101.398
246.663
362.202
140.086
264.687
-286838
-312336
-381759
-308246
-329763
129.199
329.943
13.4468
22.0565
-271032
-277528
-298601
-299934
-291832
-60420.5
-55007.7
-45038.6
-49253.7
-51176.6
-73.2226
138.601
-2.77193
-320.939
-105.948
-510279
-426268
-136025
-116366
-125269
6469.92
25877.7
-93086.2
-48316.3
-78594.8
-84794.4
-141869
-94956
-97486.3
-51595.3
-75032.8
-49172.2
-71674.5
-4370.12
-3089.39
-2202.26
-2494.68
-2683.92
-149709
-127473
-138507
-161149
-153458
-33715.6
-26685
-26181.2
-32521.1
-30483.9
-295.431
-118.881
-297.092
-571.244
-455.973
-69971.7
-61163.2
-75743.3
-87664.1
-79993.4
-73867.7
-37880.3
-47228.6
-50699.4
-24771
-49586.2
-36568.4
-20628.7
-32079.2
-635174
-230007
-301049
-438643
-254471
-360.145
-98.671
-188.675
-197.048
-260.714
-1276.71
-962.192
-61.0897
-411.277
-257712
-199795
-222838
-269677
-232153
-258483
-235167
-257552
-284535
-266329
-29656.6
-36202.4
-38953
-35382.1
-375028
-303223
-314657
-394163
-364583
-6683.58
-5879.14
-4393.26
-5439.3
-22183.1
-22120.2
-26913.1
-25504.8
-297651
-297476
-360645
-350143
-215736
-212561
-244686
-230390
-50633.4
-57489.7
-48339.7
-44839.7
-50544.6
-2826.13
-1131.26
-841.832
-2118.19
-1754.7
-59512
-71046.6
-27182.5
-31742.5
-631.593
-222.872
-44.0101
-94.3874
-47.7618
-635451
-389503
-735603
-748780
-827517
-20421.1
-19200.9
-16205.3
-18290.3
-312316
-263671
-269877
-305240
-313636
-4550.57
-1502.96
-2594.43
-119074
-73177.9
-67359.9
-88777
-441467
-454710
-418304
-27432.6
-13063.6
-30876.5
-19530.9
-251.788
659.561
-20.9733
-5.44898
-301913
-259117
-329308
-323388
-315622
-9675.1
-13940.4
-11080.4
-12098.7
-2913.17
-3211.46
-4150.27
-3915.26
-1355.73
-1466.22
-2209.44
-1974.86
-1893.57
-288873
-325882
-376247
-387044
-369467
-6594.69
-9291.62
-35001
-31226.7
-27120
-25984.8
-32177.3
-24409.4
-18316.3
-22201.4
-57395.4
-114203
-107993
-86595
-31.6255
-111.929
-134.619
-26.825
-60.8408
-915.873
-1543.68
-623.953
-974.006
-118274
-203461
-299189
-131268
-162669
-2456.11
-2004.07
-1165.23
130.816
161.753
-256.914
-63.9571
-641.954
-1498.48
-470.168
-818.067
-27688.9
42773.5
17348.3
-22194.6
86062.1
20933.9
-615.183
-1254.66
-901.108
-943.561
-371.429
-828.08
-38691.1
-43590.6
-32570.7
-36653.7
-425777
-413784
-323695
-372834
-605.826
-496.695
-492.31
-483882
-470387
-415173
-422693
-421347
-1074.26
-548.477
-4343.76
-2442.84
-3585.92
-1943.95
-2583.7
-91682.7
-68796.2
-55335.4
-50630.4
-51762.9
-34835.8
-32938.6
-45423.3
-4403.64
-1176.72
-2424.08
-9489.42
-22150
-13755.4
-229767
-216127
-242106
-268137
-244886
-7960.96
-7475.57
-4387.84
-116870
-219761
-205833
-182931
-371490
-350187
-346658
-340879
-371974
-192804
-179818
-187427
-200349
-106850
-55282.4
-56870
-7068.46
-18770
-10848.5
-1195.71
-1826.21
-1991.09
571.152
291.289
171.509
389.442
382.326
-124666
-141032
-121695
-116746
-131373
462.508
339.97
590.098
-83520.3
-59038.9
-184.427
-361.241
-622.77
-88.6986
-149.085
-540.016
-259.93
-27444.8
-24422.8
-24215.1
-24608.6
-7856.41
-9613.34
-4018.16
-4390.92
-76745.4
-66783.8
-58817.1
-67378.6
-65763.6
-5790.37
-4187.02
-3784.87
-501907
-631170
-674136
-582603
-656079
-488281
-349642
-229159
-363458
-19949
-17805.4
-30754.7
-29689
-26841.4
1203.03
3251.92
752.71
-4671.79
-174.105
-10061.7
-12358.5
-7307.34
-24920.2
-29969.2
-28092.3
-10770.1
-14374.2
-10628.8
-12247.7
-22253
-24454.4
204.388
366.715
206.784
196.581
-285625
-308158
-55544.5
-57538
-47499.2
-44470.6
-49328.3
-31199.9
-36111.3
-30944.7
-26199.4
-29940.9
-91990.4
-86620
-102071
-109392
-100802
-2526.71
-2596.17
-12928.2
-7774.71
-9972.68
-9220.72
-535671
-332976
-387390
-487123
-443430
-34546.5
-56320.6
-47152.9
-83571.9
-107116
-97512.9
-278478
-248707
-213111
-233832
-28342.8
-22460.5
-26294.7
-2.3732
22.0375
6.11639
-6682.72
-6838.92
-4518.18
-83443.4
-84392.4
0.174544
2.43097
2.04906
1.21238
-364907
-336833
-431322
-671.501
-192.829
-609.392
-153.268
-386.34
4.17396
44.4325
12.1581
-89974.2
-99336.4
-53040.2
444.573
-239.329
-505.94
20372
32514.9
15325.4
49222.2
-13478.8
-9289.31
-27901.5
-17912.4
-90581.7
-110517
-105880
-86689.6
-94988.9
-19442.7
-22305.5
-265651
-236984
-294742
-38.2575
-49.0472
-13.39
-472660
-605365
-212831
-335199
-279390
-268973
-259573
-205903
-27761.8
-22284.6
-17861.5
-22760.4
-22109.6
-3.35546
-1.74883
-5.80723
-8654.78
-7172.03
-5604.1
-6915.66
-45593.4
-47618.7
-56100.9
-50052.6
20.663
67.9588
11.5358
21.2498
0.579965
62.0042
-0.571611
-130881
-97329.4
-118052
-114171
-86111.6
-99744.1
-88111.3
-74065.6
-85754.5
-393.7
-56.6269
-141.451
118773
-661496
-478616
-29.1835
-14.3191
-17.715
-83.5475
1.75853
-15753.6
-17590.8
-3800.96
-5434.82
-4514.72
102.112
120.739
36.6096
63.2824
38.1459
145.071
132.494
-2.93047
17.9491
210.718
239.244
380.49
-23654.5
-34270.6
-34898.2
-46501.8
-55646.2
-55260.2
-312.654
-1641.33
-469.826
-210.567
-10438.9
-14229.2
-13763.5
-10047.5
-11461.3
-5.41776
5.39088
-8.54728
16.7645
-21602.2
-24123.6
-3.50594
-4.04275
-3.35903
-547301
-388822
-458512
-2.78938
45.6958
-22.3046
-371132
-244594
-253620
-268085
-265692
-267992
-273357
-275059
212.857
18.1105
18.8442
26.1988
-121.371
-175.366
-706.931
-8047.58
-7950.31
-10563.1
-35837.1
-38889.3
-32555.2
-32779.9
-873.292
-1510.59
-279616
-259360
-33164.3
-31382.2
-24724.5
-27544.6
-13747.9
-14950.7
-9299.12
-107.159
-323.438
-1.07082e+06
-1.14715e+06
-865448
-1.13648e+06
-23013.5
-11979.8
-14864.6
-74504.4
-61952.6
-61911.4
-304741
-282569
-3691.53
-3539.51
-15003.6
-11615
-16202.8
-14803.7
-208819
-129043
-191229
-152676
-16990.4
-14598.5
-394.914
-593.499
-270062
-266364
-214867
-246583
-109087
-116885
-106576
-107073
-461725
-450008
-379212
-405971
-39206
-38540.4
-33568.8
-52556.9
-43342.3
-47232.4
-7918.69
-10747.6
-8729.95
-318815
-301322
-259223
-294410
-6745.19
-117937
-163868
-161901
-155869
-44029.6
-45764.8
-30205.5
-30124.3
-38419.2
-114.571
-54.6397
-27.9881
-227187
-198002
-165101
-169350
-380072
-372031
-451441
-405366
-41185
-41387.3
-40928.2
-42119.5
-21394.5
-18367.2
-20722.4
-80700.6
-114254
-198232
-7039.37
-8146.32
-10487.6
-8526.59
-8960.67
-35296.6
-34930.8
-18046.6
-27613
-574975
-636551
-667495
-891881
-730486
-1895.21
-7435.34
-2758.02
-4771.29
-3071.02
-2017.13
-3162.18
-1.53426e+06
-173417
-182085
-34793.1
-1.04497e+06
-1.03171e+06
-80733.6
-77478.9
-84726.6
-3682.41
-12275.5
-419.249
-521730
-754050
-3003.62
-9531.27
-366.106
-431148
-498485
5848.23
16365.1
-52535.2
-46652
-40808.9
-45893.6
-46228.3
-9663.6
-8074
-9858.14
-183920
-167884
-206361
-84283.5
-1.00477e+06
-728462
-287390
-232108
-273537
-38793.8
-98887.5
-69270.2
-5839.63
-5087.48
-898645
-1.00387e+06
-1.07332e+06
866.653
-1390.23
-137.19
-25305.9
-835524
-693344
-1620.17
-78.9248
-84.05
-84.6745
-322078
-331077
-394370
-376918
-305762
-319024
-254025
-328563
-10021.3
-8610.62
-11593.1
-60087.6
-60350
-54311.6
-931592
-886500
-15.5103
22.0579
37.6244
-88810.8
-119097
-103707
-106257
-578735
-617795
-744021
-575778
-278960
-280379
-684891
-572225
-588710
-708553
-630746
-214180
-189424
-209128
-169916
-151252
-136273
-150847
160.277
58.936
13.7968
-39518.9
-16062.8
-100.401
-808861
-881936
-742750
-2455.68
-845.749
-1312.62
-471365
-517692
-496912
-523634
83879.7
-6845.91
40937.2
19943.1
-148711
-87642.6
-15313.8
-15808.3
-6139.95
22730.1
-82325.1
-23028.6
-742.446
169.487
155.378
-11861.8
-63209.3
-67579.2
-63638.6
-39008.7
-39276.4
112.802
-16537.2
-18058.4
-1.22339e+06
-814963
-1.09011e+06
-36112.3
-32211.6
-25117.2
-28658.7
-184451
-226246
-235848
-686902
-546226
-546424
-541025
-104629
-97225.5
-34659.6
-42338.7
-42033.1
-84227.1
-76186.5
-83180.4
-87067.8
-876638
-752851
-99113
-1.00033e+06
-930067
-19111.1
-33743.4
-34429.5
-0.0101705
-2.56956
-0.283695
-178090
-177354
-179705
-13513.9
-17556.2
-13842.3
-1.51755
0.846368
-229.898
-455.899
-274492
-276666
-141542
-77440.3
-55502.6
-125517
-102846
-885993
-402037
-547900
-61416.7
-46001.3
-52696.7
-779159
-1.06138e+06
-398813
-209729
-713054
-836151
-805857
-638344
-731469
-618161
-552163
-571945
-546844
-299836
-242079
-294429
-788017
-148825
-353553
-187386
-225343
-208718
-22278
-19534.4
-22798.9
-1.37441e+06
-958725
-479.359
-8185.44
-689364
-608613
-70364.9
-67017.6
-53815.2
-59293.8
-18910
-16432.8
-58080.5
10509.4
-7368.49
-27884.3
-6923.96
-7853.58
-42285.7
-47480.5
-47956.1
-283084
-158185
-269102
-273245
-105.695
-166864
-132068
-41180.5
-36441.7
-532175
-578339
-594280
-524496
-795223
-5.23876
-3.22085
-80561.3
-74535.1
82.913
60.7144
214.195
-5259.74
-8041.29
-54754.7
-61667.7
-56332.4
-135682
-80897.4
-859527
-701159
11.3956
84.744
42.3535
-41764.9
-34376.6
-35274.7
-4771.99
-6161.8
-616074
5285.6
164611
-54144.3
-517426
-667644
-30137.4
-4.37396
-5.19256
100.249
157.987
-27227.6
-39743.5
-47188
-43883.6
-162059
-142978
-20253.5
-106630
-20062.5
-14980.3
-34249.6
-25357.5
-50368.8
-31422.5
-37429.1
-2786.72
-3985.27
-5667.49
-9703.16
-168143
-179248
134658
-189604
-281051
384253
-528344
-460296
-264592
-252955
-258914
-169830
-171835
-66081.1
-74711.2
-66405
60.8692
31.828
65.3752
-640620
-307354
-241452
-222591
-288378
-265335
-307772
-304118
-87067
-80851.8
11.3088
-1.87725
3.92227
-154432
-147709
-131861
-18724.2
-57330.5
-27415.4
-26384.8
-15068.7
-20920.9
-21910.1
-34565.2
-35184.6
-37889.7
-227985
-209301
-165127
-162152
-173768
48.9145
111.541
-134738
-176340
-130535
-299574
-311655
-340166
-499935
-40995.6
-41708.9
-41059.6
-71287
-80936
-374257
-304295
96970.3
-112490
-108676
-267762
-297855
-648433
-1.55323e+06
-487747
-807259
-20355.1
-23389.1
-165630
-226811
11.1954
9.56061
-13083
-26286.8
-132.629
-738748
-529521
-786858
-42540.2
-17123
-11453.7
-13120.6
-99364.3
-124030
-109815
-93661.3
-103198
-34148.3
-32846.9
-55970.8
-53924
-48407.2
-649152
-514232
-550908
-510594
-550597
-566304
-543355
-72607.3
-66915.7
-338711
-253826
-287393
-66.1627
-132614
-7022.07
-504.55
31285.7
4158.46
-128.981
-79.0883
-110.133
-464281
-517461
-514441
-58263.4
-55786.3
152231
355656
534565
154787
213686
-421316
-367984
-41213.7
-51934.4
-36075.7
-25922.1
-29246.6
-572825
-329378
-201929
-57.2656
-53.1645
-465414
-802005
-10317.1
-899374
-712909
-185635
-247295
-235851
-147588
-147747
-64817.4
-103041
-106746
-383693
-302043
-286046
-308784
-46462.4
-43458.9
-329370
-350804
-310583
107505
68430
11.7234
-888075
-83694.1
-86472.5
-720167
-470229
-429207
590394
425274
484312
571018
-76524.7
-80501.8
42.1923
-17.0798
84.5139
-15.6295
-28589.8
-21850
-22876.4
-69073
-50350.4
-55691.7
-278860
-1131.98
-281.298
-19.101
42.537
28.6554
-645408
-1.05085e+06
-68.2649
-447948
-353856
-385363
-605747
-611174
-659969
-673973
-13713.7
-72333
-523330
-506559
-486512
-27725.6
-31617.3
-264340
-55540.7
-68749.1
17915.6
-616885
-480477
-27582.4
-1846.24
-111452
-197137
-163966
86142
195515
260694
-306251
-347204
-588589
-629492
-640063
-33432.1
-1724.35
-263829
-284860
-198589
-247135
-114083
-62383.1
-522503
-439575
-467270
-457324
-217816
-283093
-287261
-315795
-302984
-399831
-38618.4
-821798
-106759
-58557.4
-214847
-196078
-200025
-300395
-897030
-292224
-295161
-516588
-228552
-388218
122.278
22.0489
-48742.9
-37666.9
-42922
-12285.9
-503945
-467609
-360192
-381590
-354494
-626987
-947118
-932115
-117918
-119696
-212612
-292489
-241706
-338941
-334719
-332346
1239.13
113.413
1369.7
-519758
-607650
-573334
-577231
-28943.5
-35879.2
-1126.83
-3352.72
-487203
-524340
-35707.6
-28530.7
-27463.9
-210084
-20487.5
-19496.8
-516081
-520823
-532823
-16321.6
-15015.2
184920
33552
26672.9
5669.16
35557
84481.7
52890.3
72924.8
-111768
-34470.9
-36218.9
-470101
-325742
-327796
-282186
-146932
-23864.5
-27947.6
-19425.2
-17193.1
-324862
16968.2
-267707
-294716
-284977
-139953
-184591
-160306
-678385
-585006
-758046
-275881
-59655.1
-117357
-35166.9
-2257.85
-3703.36
-609888
-565581
126286
120135
451831
305749
-240122
-147044
360659
-75260.7
-382.214
-20255.8
-188894
-125476
-117613
64370.8
31532.7
-566830
-502815
-3.24537
-2.53894
-3.75295
-2.32038
-3.4911
-534709
-602775
40454.9
-684452
-233423
-169274
-25610.6
-181822
-38640.6
-30876.6
318.82
166.75
74442.9
248949
141531
-211876
-362268
-448971
-1239.68
-633840
307538
103848
101377
-15628
-21363
-247441
-234677
-265720
-325680
-326213
-196958
-200426
-347969
-35180.9
-59611.6
-54327.9
-558411
-533772
-2.57641
-477498
-485433
-215731
-154168
-170211
2409.32
866.101
-28113.8
-90935.3
-72073.3
-248287
-276962
-156997
-202682
-211941
-213697
-23037.4
424103
-87487
-25260.2
1710.24
4132.81
-127026
-91696.8
-131868
165323
-275887
-261458
-143392
-155039
-274073
-158121
-598588
-882104
-147878
-71253.4
-89735.5
-57849.3
9754.07
3093.8
-5823.32
-24949
-21482.1
-30431.4
-6395.37
-1802.02
-21198.4
-23932
48577.1
60343
-320164
-38896
-475536
-104134
11233
70575.9
-60611.9
-51379.2
SCALARS y_stress float 1
LOOKUP_TABLE default
137961
5472.58
2.04408
48.7978
-1.03649
-0.23727
29.5071
2503.74
410.717
-5410.33
974.229
-26891.8
1265.62
-40507.7
1481.92
-45774.1
3091.53
-68145.6
6069.14
-83340.3
17630.6
-360476
565289
304796
542112
35314.7
635609
265224
539648
809717
288029
425471
444247
278882
290769
488860
526154
696448
518395
1.32487e+06
-13186.1
131327
-14495
432986
389879
293125
185120
131483
74032.1
-28263.2
-53796.8
-115231
-127531
-127144
-119611
-113175
-94979.1
-74742.9
-65480.7
-45676.5
-37042.6
-29051.8
-25281
-17570.3
-13797.2
-11010.8
-8984.13
-7446.83
-6434.87
-5969.2
-6169.3
-6016.28
-6628.37
-7506.12
-8815.5
-10703.7
-13543.3
-18097.1
-40126.8
-22017.1
3249.73
1848.74
-11178.7
-11066.6
-14467.6
-14514.2
-13357.8
-13389.3
-11095.6
-11137.3
-8560.03
-7317.78
-6077.16
-6052.09
-3849.42
-3847.83
-2099.64
-1373.95
-726.114
-715.274
311.35
683.25
952.575
965.074
1239.93
1276.02
1254.64
1184.01
1073.53
932.568
770.492
596.407
422.385
258.247
123.665
128.197
4.00111
10.3074
17.8261
-1.09516
-7.73445
-13.2917
8.38
60.7272
-16.031
-33.7672
-29.2574
-19.2613
-10.8329
-5.0783
-0.969715
-0.411501
-0.57876
0.536998
-0.0372235
0.229579
-0.315894
-0.269877
-0.267346
-6.11575
-6.09064
-11.8719
-21.4698
-19.0092
-5.77221
25.6715
219.432
216.677
462.139
1114.97
1762.01
2537.18
287.773
-71.2094
-47.8651
86.9183
4.58329
410.977
67.5561
337.23
86.0837
243.284
76.9545
161.07
85.7893
122.885
494.834
-485.861
-2520.93
20.2846
-666.56
-530.879
-681.331
292.439
-230.869
2304.57
1144.41
1198.13
-1546.9
-450.271
361.132
543.824
27.4512
-362.964
-269.604
949.707
-951.621
-712.54
-750.794
-219.323
486.138
431.218
-169.121
-463.706
-291.659
1107.13
-631.717
-257.022
-1378.33
-224.07
1484.72
2066.9
804.571
-1149.03
184.001
2716.9
6502.23
-377.542
-3839.11
-1878.76
1985.06
2607.68
304.442
-1880
-101.203
5083.13
14864.1
10811.5
-45907.8
-3693.35
-848.662
-496.213
-302.66
49.555
396.755
585.011
1276.96
1107.83
2254.13
2307.69
2782.64
6338.2
12895.4
28250.6
-11604.5
58634
54100.3
47730.1
-18391.5
-30724.8
-18703.3
-13439.7
-98237.4
-222425
-36910.4
1.76477e+06
1.60587e+06
1.48238e+06
146527
132700
-38887.3
-89211.9
-192422
-194222
-216752
1.21194e+06
1.28987e+06
1.11546e+06
218312
97568.3
27052.5
15677.8
2564.25
-260576
-165653
1.89687e+06
1.7204e+06
1.49396e+06
29764.8
80761.1
-30973.5
-74148.6
-165899
-185340
-402689
1.76794e+06
1.50165e+06
1.49778e+06
553094
18280
92975.2
65901.5
-59087.2
-4221.93
-451908
1.02836e+06
999357
997209
15527.5
74738.8
-12146.8
-35462
-94851
-100288
-394709
1.53464e+06
1.3805e+06
1.37139e+06
330970
192992
96719.8
108955
-55713.8
-43256.3
-366567
996006
982459
1.27501e+06
54882.6
114301
-13546.1
-14896.8
-74032.1
-82638.5
-240194
1.06099e+06
926605
1.15784e+06
70812.8
119028
-40321.2
-78327.6
-156488
-183854
-383332
1.67763e+06
1.35802e+06
1.34187e+06
670427
136332
32532.5
-1868.43
11758.1
-5575.33
-3761.99
-10861.3
-27103.4
11897.4
43675.8
707.184
4695.09
1224.29
-4702.15
-152.473
2879.65
-61981
-59300.7
-141413
-4889.56
4314.81
-67.2316
-6394.42
450464
-183372
411132
345898
242790
195004
1971.83
-18.2278
504159
-14421.1
-7044.68
-8206.81
-5387.2
-5812
516322
275950
78123.5
131212
62695.9
-14.8904
64373.1
-27686
-10108.8
-4368.4
-11405.2
302.44
-21207.4
-87361.3
154.134
-511.205
-4647.08
-2860.98
-1775.27
-22625.9
334675
363.009
373.113
-7784.72
-2884.42
-1692.38
-10250.6
-1094.06
-2219.58
-840.845
-24479.8
-15545.7
329.975
-28682.5
7511.47
-83860.1
-2359.54
-748.437
-3430.88
181.958
76091.7
-464.897
-1162
-12329.1
2614.12
3099.83
3988.49
5518.67
8381.18
8278.45
-2497.78
5555.78
1830.23
1852.96
7166.56
9387.58
-29145.3
-31053.3
-75701.7
-61063.8
121576
91472.3
132963
199739
-916.787
50.1836
1333.89
8994.94
7440.96
220410
6397.24
5327.53
151634
372695
-496.399
-2736.38
2.7579
7191.91
-13993.2
331400
62748.2
303759
-414.367
-1655.24
-12524.5
-10902.5
-21465.8
-25710.9
-17269.1
-24870.4
-4174.03
-4933.58
-4048.66
-535.311
5493.79
93284.5
5718.27
5105.28
4540.19
3288.4
-6370.92
-15544.7
-12281.7
-557.878
-94.5929
-744.58
-10083.8
23.7929
-72315.6
-185635
-6558.89
-121341
-5160.55
-6842.86
-8900.42
450.701
643.849
-1175.94
-6767.97
-43655.5
8.9607
314790
70396.4
29435.8
52852.2
-22713.3
3166.5
20218.8
-75693.5
-55047.2
-68939.7
-88538.3
152.721
-9214.81
-3919.13
628.12
155686
-19361.3
57615.5
-3792.35
105368
126166
-14033.1
5675.91
-3048.65
-208.05
-100.739
-276.503
-817.862
-79204.9
-81437.1
-40470.5
-122426
-62355.7
-955.483
19554.6
6983.04
-17333.9
4811.67
-8161.75
-60161.9
-426.302
-139.93
-514.797
-8004.92
-11300.9
-8967.85
-13315.3
293547
-24594.7
4748.3
-43607.7
190709
7430.65
63433.7
166773
192694
-44724
-53.4401
-22079.9
15885.5
934.214
142496
-0.807204
966.692
-217560
37954
-44070.7
-3548.08
-10332.5
-101056
-24254.6
-9297.92
13144.2
1894.74
1556.24
1184.55
88849.7
144213
156392
169959
-17994.3
-5895.56
-58051.7
-2560.88
-1860.61
-2975.03
220.236
178757
143370
204517
-2127.19
-1675.35
-3146.67
-2783.23
2813.75
2152.28
-291.423
-5462.77
-1045.54
-23816.4
-4847.81
-11263.3
-2581.38
29706.6
22104.5
16068.4
-4077.73
4035.28
1560.49
2084.32
1776.57
-3274.93
-7232.88
-142.719
-1067.51
-4701.47
-6876.38
-3144.08
149571
116849
-145671
-122395
23287.1
8493.62
210789
311504
305354
216239
-915.42
178927
232104
-141.016
34.846
7.49
8.15563
245886
27965.1
160.24
403.376
-421.764
5.33231
-24.2063
353.523
-10868.1
-38176
2175.72
8344.22
383.707
262.346
342.664
6.41852
213.277
-161.956
-379.463
-97415
173633
-2510.98
1966.56
12099.4
19770.2
-6412.48
-4396.67
-5037.16
99281.4
138.885
-45.3713
-75.5563
-101245
192.921
1513.54
-32562.3
-4862.33
-2758.33
265611
75139.4
220209
734708
-42651.8
-8379.09
372839
1543.71
-56535.8
3301.17
462.76
-1698.98
-31096.9
-2425.49
-13989.2
-16288.8
-17835.6
-6115.19
-18563.7
197441
7053.91
-5983.87
-7208.87
-5132.66
326898
-219.097
-1987.38
3186.54
-74590.6
-2727.55
91317.5
-2483.32
-40248.9
-7735.3
1.65921
388169
99982.5
-62305.5
1959.32
3752.14
-12523.2
11503.5
-102453
50715.9
8042.16
1884.89
-84733.8
107573
83422.2
-318.353
-22395
35964.4
-1310.26
-5195.7
-863.998
1915.24
2298.95
95923.5
-25655.9
8600.07
-7202.93
1.00737
103780
-86992.4
-94577.3
-2360.29
-10316.3
80181.4
602.354
-93324.9
-58.3492
495.734
-92.5979
-59709.9
51851.8
5369.52
-1356.34
395.099
246.959
180652
-4340.03
2504.14
-19920
-882.436
-842.569
31721.4
-6435.79
-75464.9
24053.8
189703
-181774
-3723.77
-1.49439
222275
-28340
-10489.1
-34960.7
67123
-9850.99
20284
45.9947
-3116.39
31983.4
-24925.3
-23.8554
-6971.41
-5520.07
-8626.1
-3458.68
108.296
-255633
448103
-221229
-109094
-154396
-19389.3
-60778.6
-212478
99016.7
-7297.12
-939.46
-265046
154938
-20580.9
-161.954
169809
-5820.85
9.01892
-16.9567
33601.5
-12468.3
-79689.5
154884
-75371.9
6721.05
2.78573
-7621.59
-252720
-0.88701
-75251.8
-10484.9
9192.02
13312.8
6563.51
5.48268
8.36194
3.753
4.26308
6.85979
11311.5
-14679.4
45034.1
35807.5
33869.5
-722.499
-681.697
-1215.87
-1377.37
-1213.58
-26115.7
-8736.14
-7682.33
-25484.6
-21394.2
953.336
734.222
70.0326
334.1
387.092
-16954.1
-33021
-44070.4
-31014.6
-31638.1
-20.8189
-126.141
-127.885
-40.2113
-71.1832
5847.06
17965.6
50862.7
12097.6
38296.8
-10.9726
-107.216
3.7441
25.1368
474.795
994.905
5130.49
7939.16
6926.24
4651.93
5174.59
3.61344
-1435.52
144.899
-353.834
-228.358
-293.097
-444.249
-364.356
158489
-200977
-109574
854338
44902
66513.1
181524
230130
123635
-3416.9
-10932.2
-4664.92
-18626.8
-9568.09
276406
359212
404591
316625
-2040.4
-2556.86
-2014.29
-1031.95
-1766.15
-12623.3
-547.601
2601.58
-6084.76
-3698.26
5124.41
2199.19
1650.66
2787.75
2526.33
-2153.37
-1156.24
-840.905
-1541.29
-1403.16
-10369.9
-91.8746
6223.16
-6339.47
2340.44
-12348.3
-23072.6
-3685.82
-14662.1
-17368.5
-9145.4
-7582.64
-6494.86
-12192.9
-152605
-31982.7
30588.1
-116550
-95076
-630.782
183.754
-27.6307
-170.228
-4392.03
-6991.78
-8567.7
-6539.17
-6571.81
169503
103093
86260.3
164081
143190
-8612.93
-11056.3
-3943.93
-787.061
-5197.78
1987.77
3283.08
6223.55
5077.73
3406.52
15544.7
14915.2
27021
15572.6
-1362.84
-2554.18
-3078.3
-2741.29
844.185
365.001
912.37
830.972
-23832.2
-4398.66
-25937.8
9675.43
-23088.6
-28087.1
-14840.8
-14797.8
4933.35
8751.38
6034.59
4841.66
5843.08
-829.86
-685.445
-547.701
-563.696
-684.646
-20278
-45725.9
-41180.6
-50945.2
-10253.4
-11771.4
-9787.01
-6875.98
-8260.14
-97840.4
144487
-123118
-50980.4
113045
503.599
1888.55
1209.74
423.608
198731
247476
252149
217146
253528
-926.018
-918.939
-1045.18
-56456
-66343.4
-50964.8
-51686.9
36503.5
24145.6
47266
-18169.3
-15394.3
-6501.28
-11908.3
-13871.1
-15058.7
-12870.6
-13451.9
130532
50329.2
68194.3
103008
88811.9
178.342
220.792
608.03
378.405
-4599.22
-3355.7
-4329.22
-3501.9
-4462.05
-3719.31
-3482.2
-4636.78
-3955.48
36662
119690
23680.9
-28231.3
25336.6
-6923.62
-14042.2
-6077.63
-6558.85
-879.672
-2864.83
-2917.85
2624.21
337.336
602.747
-132324
-97465.2
-76729.2
-97164
171.123
-52.6421
74.7099
458.763
203.665
-3485
-5671.72
-3879.71
-4655.85
261347
229824
283985
259174
251401
-5685.11
-7703.69
-6352.03
-186.995
-148.59
-385.508
-250.779
-511.723
-938.428
-440.788
-659.216
-20348
243711
238574
346000
305493
303512
-3135.71
-2546.36
-2904.27
-1790.32
-1019.79
-1497.86
3512.53
6902.81
2327.99
3593.17
722.848
-52011.9
-49157.2
-41051.5
-466.719
-498.823
-487.395
46125.3
57936.3
50898
18922.2
27310.4
-25.0881
798.429
491.189
-62.1776
708.147
-2929.81
-2740.32
-74190.7
-59547.3
-62389.7
-20193.5
-11238.9
-5867.44
-14037.7
-13751.8
51.2963
-437.331
-500.128
-10114
-3400.03
-7158.5
-40127.1
-43976.6
-39607.4
-26390
-38529.8
-117.062
31.1104
150.455
3237.42
47.8673
2605.54
12236.9
234217
174092
223193
351648
300007
-22384.2
-21071.8
-21944.1
-24655.5
-102468
-123324
-131890
-7368.5
-2361.83
-4468.14
-1082.19
-2037.65
-1768.12
9.75252
-54.963
-72.6529
-20.7437
-33.7842
2206.75
4022.72
7756.79
3272.62
2931.75
-9.8708
-29.5397
86.6165
-28290.7
-53964.5
-3973.29
-2842.21
-3861.79
414.66
146.791
-526.128
-76.7438
1691.16
15.4048
793.772
-68.0061
-3815.23
-4212.28
-6926.57
-6431.04
-944.776
-1083.35
-5166.93
-5063.63
-5752.83
-6150.97
-8299.76
-7687.36
-32272.5
10.059
-17983.8
-69831.2
-18972.1
41256.5
20385.7
-77905.1
-39896.6
-2696
-3336.77
-1274.29
-961.21
-481.592
-34692.7
-26180.8
-19514
-22760.7
-23984.4
-4549.38
-2422.02
-3681.35
374.622
2785.36
974.177
156.134
768.514
30.5834
634.499
37.2451
-65.5627
-184.665
-97.5849
-167.502
-211.168
2961.04
7732.33
-4455.89
-2818.84
-8486.29
-9115.79
-7723.72
2867.47
4271
3300.23
430.714
1513.98
8773.9
2773.82
2904.63
7793.61
7111.53
-6052.96
-5172.32
-2247.43
-4243.07
-2788.39
-3238.07
13905.6
-51966.1
67065.1
90359
13265.7
-674.349
752.229
-3248.02
-15264.9
-10697.8
-18667.7
-8684.3
-9506.34
-18581.6
-11807.4
3984.62
2749.03
2017.66
-8.14416
10.9479
-0.228825
-206.153
-670.867
-133.713
-5024.01
-15490.3
-5.68218
-3.49888
2.15931
-2.32837
8857.3
-23867
11700.9
-36.7832
-270.49
-411.974
-2368.42
-2171.94
46.2802
23.4588
21.6866
-91576
-87062
-115851
-77.1678
-318.741
-476.959
99128.5
43171.6
6381.02
26164.6
-1711.62
-7118.82
-6895.61
-4704.79
7786.67
7337.07
5294.24
8801.62
8980.06
687.35
-115.063
-16070.3
-64444.4
-14968.6
697.002
546.647
510.935
164382
73191.3
-83834.1
177523
37015.3
26302.4
1235.32
-788.935
652.932
-3.29766
-487.756
1286.04
180.938
-3.63109
7.60081
-0.351317
-1904.42
-3157.57
-3803.03
-3269.51
-3903.13
-4052.42
-3056.15
-2135.67
9.93006
-18.5231
10.5145
10.9809
203.59
92.3438
42.9518
-16178.1
-8552.03
687.546
-4334.14
-7259.09
606.313
978.415
-7265.64
-4999.99
-358.076
-59.3146
-134.183
202128
-75545
5393.49
727.322
706.471
618.579
343.321
732.215
652.188
655.36
-13533.5
-9261.76
-9535.77
14.8654
-21.7832
7.38645
9.08437
-76.8936
-46.4522
-128.141
422.47
626.302
-5.74195
7.47759
-63.4131
-3793.78
2279.06
-1037.02
-5086.77
-7820.65
-4270.69
-9825.8
-13157.8
-16312.8
-13742.7
-359.941
550.931
-4.78497
-562.465
32.2274
909.546
376.325
348.055
703.977
82.5411
976.178
-0.70664
2.03354
1.47026
11674.4
36365.3
34291.8
280.41
185.972
200.118
125426
161133
111189
61154.6
-11408
-8426.56
-2463.94
-641.031
-118.491
210.513
205.728
430.608
-2.39214
511.537
87.8551
-162.023
43.8823
-493.114
-3691.36
-838.731
-525.63
-1878.22
-925.122
-940.479
6846.97
1225.56
5024.84
4305.02
3387.94
4141.87
-2124.93
-2177.81
-3929.84
-303.07
-818.461
-5267.93
-200936
-203986
-157402
-3424.53
-1776.3
-745.38
1178.09
-209.576
-3907.58
302.59
7050.51
-14722.4
-18266.2
-202.39
-1276.16
685.655
-546.427
-74942.1
-108450
-81318.4
-89944.3
1191.59
882.1
-377.267
-691.697
-2763.64
-14308.4
-32442.1
-22936.4
-3896.73
-2949.67
635.903
-1288.16
-77998.4
-77929.1
-68229.3
-71763.9
4700.71
5932.46
5629.34
8652.39
7652.52
5715.95
-1421.35
-1419.82
-1185.19
175393
188549
84857.6
126890
-570.212
-23159.4
2069.81
-2301.44
-3497.74
-11371.2
-4677.4
-4657.01
-11114.7
-9403.72
253.617
-1139.85
-860.568
-19707.1
-7796.99
-13651.8
-987.684
-29353.7
-62976.9
-46600.5
-36637.8
-5862.71
-11898.7
-10648.7
-9726.04
2541.87
1736.91
1331.91
108008
448605
707477
-5161.71
-3787.07
-3288.78
-5209.58
-4665
-14365.6
-6920.3
-9605.7
-9012.41
-64525
122743
39807.2
-29836
3511.64
-5888.29
-2412.23
-2647.65
-5684.21
-7417.73
-7834.58
-6679.76
383252
19583.1
577212
304094
-105799
-276258
8925.03
4317.11
6315.85
-10394.9
-4690.81
-713.236
-409016
-265570
-8931.4
-3721.67
-620.692
-37754.3
-189435
322947
-37544
8221.32
6623.87
6610.85
5844.22
6178.29
112.363
206.086
513.328
-31617.4
-29265.3
-26922.6
696771
-410376
-318697
-34294.1
-51275.2
-18331
-2028.31
-4283.03
-855.078
-4634.04
-5071.73
-115664
-82340.6
-10767.9
-16584
-15311
-19860.5
896888
-338151
-239827
-2429.91
-1802.62
-4280.89
-3595.39
138751
106023
86189.7
67989.8
181946
265380
248214
215106
-2093.63
-2616.92
-1949.13
7456.24
8425.46
8773.73
-285377
368706
180.403
138.074
396.431
4473.21
3192.81
-2800.1
1928.99
31289.2
110431
-23546.8
26364.9
2999.67
4596.38
-67175.9
-99952.7
-107729
-112776
-98509.5
-33318
-20172.6
-33334.2
935.013
1406.49
-516.417
-605.968
11.2046
131.537
12.5702
538906
395543
534.319
-115646
-272367
-175672
-10237.8
-9426.74
-8682.3
113102
164515
234859
167799
139187
92111.6
190675
144408
-26069.7
-21376.3
-15687.8
-30617.8
445772
261654
292949
-15376.6
-1157.38
57.8636
-8.65189
-927.497
6954.79
9503
9657.97
3048.71
3320.67
-46.9177
-508.597
-1421.71
-237443
1646.9
89981.4
4660.27
2518.41
2798.24
3750.19
34327.3
32802.4
94922.8
-158457
114954
299.145
-19642
-30728.7
-15350.9
-3125.37
-16679.8
-9591.62
7066.32
9236.04
7665.2
7499.77
-150014
-48687
487723
-347743
-490508
-1291.84
-3041.66
-2194.04
-4.30619
-0.791933
-0.302469
-20063.5
-13435.2
-17839.4
-1044.33
-517.11
-1809.97
-0.655901
-4.325
-134.276
-373.012
51.2868
1461.69
167858
188119
104257
130244
124098
-148799
105501
3628.29
7521.51
3775.15
4427.41
192090
-84600.3
208295
54170.4
-115713
-137109
-105075
-107668
-148038
93915.4
21157.1
59291.4
64413.4
-70478.3
-75410.1
-43166.2
-88656.2
105128
21636.5
-11375.9
-45053.5
-32885.5
2425.62
1843.27
1916.13
-83344.5
445798
-9752.22
-259.634
-1881.53
-24247.4
7295.47
3232.55
5936.88
7696.93
1378.71
1160.39
204570
224428
226183
243406
-4514.11
-3672.54
-5035.44
-7845.59
-3667.92
380521
245176
-3373
-1395.58
-1142.84
-16573
-15863.2
4292.58
5625.88
-93409.5
-46138.2
-92711
-210253
-143137
0.205455
-0.913578
8005.22
7172.45
-12.3209
-176.124
-133.633
-7546.44
-5333.18
1105.83
-657.754
-10272.6
-24081
-11145.5
-314595
488522
38.8887
-32.8599
-77.4105
-4862.6
-11666.2
-6762.14
-6123.97
-4638.56
-148612
-47794.1
182354
18224.6
132447
39923.4
3051.87
1.61977
1.31427
39.4531
-26.3404
-993.946
-5991.43
-16444
-6707.01
-3911.53
3362.42
-35821
-20562.5
-3563.75
-542.947
-1322.4
-213.359
-8314.9
-2319.94
-8718.42
-12137.4
-8794.33
-9026.36
62.5154
-25082
-19858.4
103269
403318
296453
150027
311450
231898
-5191.69
-22448.4
-9218.6
-4155.61
-8118.09
6734.09
6995.09
6219.34
108.479
179.627
108.397
-98941.9
-47667.9
-59642.9
-83426
-76531.7
-73105.5
-26151.3
-45777.8
-5893.57
7893.35
10.0245
2.72483
3.16515
-40206.2
-31336
90709.1
125027
31960.4
63178.3
1530.99
-2265.96
-802.084
-546.083
2114.51
1306.57
2062.41
162890
169714
175251
138910
142067
87.4384
18.6606
-81023.9
-75460.7
-108412
229693
93838.6
518914
600761
1352.95
-2156.53
-1478.51
5487.15
8117.62
197942
394096
166563
-12535
-24497.3
8073.59
14340
116991
99845.6
32644.5
-88508
974.703
1776.78
-17314.3
-11140.7
9.91514
9.03685
-905.11
-1072.57
148.206
223706
246678
481134
7067.17
404.022
-1536.63
-635.294
-6442.06
-5533.39
-5542.63
487.225
1378.81
-11008.7
-5097.72
-12733.7
-14415.5
-17746.4
-45537.6
4096.47
-27705.4
-35305.3
-22620
16451.4
24887.7
5187.56
6595.53
-64938.7
-79868.4
-84259.7
918.597
-497.884
-7495.11
-112.541
15595.7
-224.633
-7247.75
-11278.2
-9910.61
-68606.1
-61079
-41915.2
-9895.37
-9921.89
196218
86264.1
340248
508060
426036
-71482.6
-75304
3118.51
4299.78
429.044
-2109.99
-1025.83
-277604
-200177
747782
-199.998
205.14
107206
23585.8
-2433.39
-182608
-45269.1
579.594
-9077.86
9806.4
-48913.3
-24693.8
-24235.7
-44369.7
358124
30474.7
-8439.88
-23374.9
-6093.73
-9267.49
-11278.9
309864
209842
180210
62361.5
30643.9
11.7861
-139589
3606.63
2249.13
195610
40141.8
2419.08
894394
143562
721259
498453
5096.4
4307.99
143.722
-5467.2
-6134.91
-4353.58
-660.986
-1480.25
-2301.28
2020.83
-5760.85
-3252.02
-4355.97
-6375.91
-6198.89
-7179.23
218.546
100.809
-404301
-429216
-248.996
79074.6
71710.7
61015.9
13203.8
-14190.5
-43048.8
4009.1
667.543
5604.36
136124
70909.8
313382
345.392
2899.54
-2337.99
-11151.1
-6244.24
-80500.6
-213855
182618
-5254.03
-8804.89
192285
217563
189213
131918
-9199.34
32002.8
183376
171045
39549.8
106250
117957
-7153.19
-10316.8
-19809.2
-20665.8
-38916.7
-19592.9
22567.4
10507.4
147591
128894
58632.6
73384.4
-55664.6
-21359.7
244194
-37696.5
356065
361614
-5990.21
-386527
-59598.6
-30155.3
-89120.8
-74598.6
-81210.5
-147256
-222451
182383
186725
143201
-157785
-136091
-13557.3
-12595.4
-9418.16
-5668.86
-3583.52
-4090.46
-85678.3
-75635.2
322559
297977
277443
196633
151124
-233434
6656.87
4406.16
167210
317545
259383
76276.8
137132
110291
-17892.2
-14745.5
-15353.4
-80839.5
-52427.6
-33224.3
-56092.6
-240.275
1097.45
-11907.1
-14426.4
-85826.6
-90787.7
1115.04
-1303.56
1493.59
-85769.6
-5009.04
-2086.82
52488.4
46919.6
38591
-3563.65
-1149.96
251516
372663
417421
322184
230076
264520
414066
274495
8704.67
-10729.7
-5602.54
53412.5
362517
388533
414169
509369
-889.402
-129.586
861.666
1037.85
310959
240973
260094
190682
200982
43824.6
129484
86334.3
98460.3
84232.1
147131
113678
649128
455170
-12778.9
-9984.21
-8253.54
1205.23
-23723.5
99228.1
352327
423438
116937
-48542.1
-38122.1
169951
856329
-5780.1
298.832
-40362
-74616
-53474.6
501228
423303
81788.3
44209.7
0.685558
1.36507
3.0021
1.1787
-0.158954
-28287.6
6134.7
404411
-27043.6
166655
143244
-3602.04
-5455.78
-4036.94
-5080.75
-15809.1
-14380.6
335502
454744
528199
270292
74099.2
112195
-11673
112275
124941
262398
134742
679.583
190.598
112012
-47907.2
238260
376353
172264
-39978.3
-40297.8
61456.3
2428
-10455.1
-11507.9
60298.8
-45928.5
0.963548
-42687.8
-83755.8
-54933
-33921
-60031.1
-18815.8
-17910.6
148134
232160
213827
194006
237480
-81893.7
-45676.5
-54080.6
157137
-3361.53
239846
308550
445685
-38636.5
-21510.9
-69383.2
-90589.6
-75550.8
266070
205191
160794
-16367.4
45896.8
193834
-29681.6
42531
-423483
-42446.4
-10381.7
-9743.98
-13183.4
198292
117757
-3444.78
254746
67972.3
8220.33
113829
-47239.1
34527.1
8073.59
331952
603740
364195
-4371.56
1787.62
224422
225947
340271
10411.3
-836.388
SCALARS xy_stress float 1
LOOKUP_TABLE default
-10393.4
-3923.88
-7.91635
25.7625
0.907076
-0.224499
19.7895
-108.138
-2192.26
-9518.68
308.531
-16597
414.999
-31615.9
489.668
-34706.6
970.86
-39224.8
2287.49
-34688.8
3740.4
-334245
1.45163e+06
-766414
712307
338049
1.34329e+06
602154
1.3338e+06
-439125
802919
682482
1.41404e+06
776275
513786
808553
785780
1.00684e+06
1.32004e+06
704395
-3942.97
58692.5
-5115.14
408814
381916
377617
371054
357878
337160
288673
275661
238316
221005
204317
187344
177866
152814
128966
116346
94821.3
83767
73501.2
68171.6
56290.8
49362
43470.3
38440.9
34262.3
30872
28013.7
25061.9
22089.4
20542.1
19209.5
18084.1
17172.1
16505.2
16234.4
16673.1
-12115
-7998.49
-2734.9
-2367.11
-705.558
-96.0515
127.272
343.689
420.883
501.87
546.171
512.927
469.26
365.917
345.401
369.118
555.598
327.276
289.907
239.456
400.779
131.118
75.7972
34.3784
203.853
-31.4945
-57.1137
-75.9866
-89.7553
-97.4371
-100.195
-99.7965
-94.9651
-86.2728
-72.408
-53.2694
-55.5245
-5.12301
-4.78555
-52.9654
-59.4925
-74.4098
-74.009
-82.3051
-58.1379
-10.4077
14.0579
15.4324
11.5541
7.41401
3.77104
1.04638
1.31359
0.17704
0.708003
-1.27218
-1.16134
-1.02708
-0.182116
-0.21413
-0.825359
-1.61026
-2.0489
3.81779
8.30518
14.1288
12.7834
19.6134
24.167
79.0046
-9.65578
-82.3699
-585.7
334.483
275.118
106.051
273.598
139.176
-165.453
-78.7079
-343.542
-489.169
-724.081
-992.939
-1198.9
-1532.59
-1791.36
-2109.83
-2643.98
-1582.2
-1668.1
-4470.14
-3047.11
-1698.98
-2892.87
694.538
-677.904
-3182.33
-270.95
-6580.86
-4743.38
-3087.81
-2439.48
-1300.01
-3353.62
866.877
1002.33
-4911.45
-1916.78
-8573.72
-5878.76
-4418.23
-3373.13
-1742.93
-4026.53
1008.14
1183.14
-5491.51
-1750.75
-8208.34
-3786.18
-2438.68
-927.293
685.704
-2289.25
1478.16
2381.39
2117.07
-3702.56
-19750.4
-15378.6
-8506.66
-5717.61
-1426.87
-8632.94
3609.7
4926.26
6346.89
-2094.38
-51748.3
-9376.13
-1346.76
-67.8259
521.127
662.611
358.616
44.2946
-1943.87
-2883.18
-7133.68
-9014.56
-15087.2
-20255.1
-13014
-18159.6
12387.1
-3289.05
-45788.7
-18621.4
-46987.2
-20928.3
21831.1
35975.7
120412
268975
235219
-413636
56741.6
-24000.6
357607
212847
125451
159806
242296
458764
229.774
1.11592e+06
-50660
48054.4
328940
165732
95079.7
89806.3
114424
429439
136858
-561140
6711.74
16642.1
238562
178754
144123
174279
255751
455629
19055
-498201
-221863
100578
696451
111769
146703
126531
-16722.9
61355.2
-278719
-205646
-130812
87522.4
216957
156524
113794
124604
178531
307802
14579.5
-318602
-229251
50416.4
490773
259986
101208
67146.3
-125210
-72658.2
-312136
891103
94259.4
-4421.88
325695
266300
156218
162458
175375
300133
1817.32
1.08394e+06
5502.1
55123.4
379197
313722
209875
230281
287441
520676
3755.47
-493706
-161992
23668.7
515218
185450
87626.6
64761.4
4913.44
13045.3
-6286.08
-9066.7
-6782.82
22659.9
58456.3
6164.15
-1071.68
-9450.42
-5818.77
-9224.73
-5217.65
-8248.62
-23132
-37787.6
1838.88
-6551.75
1480.69
2931.91
297958
-68391.4
369698
464037
386296
432051
-3201.36
355.102
513812
-20568.3
-15670
-18677.4
-16395.2
-18350.8
621398
378025
250576
319494
260759
-30.3946
175495
-45152.7
-30369
-20304.1
1694.37
1734
22405.3
77638.3
2440.03
4052.66
45238.3
-10099.8
31177.3
-23929.7
306781
-112.93
518.704
17114.9
20958.5
868.188
-28925.8
4798.95
7073.9
6826.28
83716.3
858.436
378.014
117219
137937
166218
11406
11476.9
8410.66
239.317
310372
1947.28
1493.95
-10748
-13366.8
-9354.85
-5406.06
-1060.19
5556.29
6921.63
-18356.2
-4306.37
-12492.8
-7852.09
24016.2
18425.4
120130
113660
138865
163539
294651
236836
366737
371348
1004.67
83.5519
-18325
7912.82
23381.1
388754
10003
12489.6
430500
438007
327.64
-8109.24
0.275087
27323.5
173092
270927
278111
288013
7032.02
27504.4
19578.7
40535.6
53886.6
81651.3
70324.6
75822.5
11465.2
8465.15
5735.22
77.1625
36000.8
236219
8278.28
17585.3
10768.1
18846
-22099.2
-20195.1
-30488.1
218.491
33.5012
-8923.69
-79656.3
-228.426
240961
368799
-18561.4
595201
5529.69
7272.06
-12577.5
7724.2
11129.6
15025.9
-31779.7
111408
1.32168
477953
202286
260722
271667
244922
13109.9
-76719.2
164078
202030
187547
49967.6
-6704.15
-14510.6
-10984
15105.3
457172
261416
278040
3476.31
469500
431562
-20421
26354.3
3111.37
-9.27239
-87.2493
277.275
-20817.1
218616
205870
164864
355778
175757
96057.3
102957
72555.4
59646.7
16751.2
-22540.2
288944
49.8732
-42.3079
444.461
5434.9
8589.87
9964.73
10326
36753.1
101358
-260.521
140880
539420
276987
311194
360688
355044
142507
7.17268
218164
-18056.2
6641.01
264233
-4.97089
-7580.04
-12068.9
232788
-99295.9
-11300.9
-16402.9
390253
839.126
57057.2
300808
25508.3
19420
44253.4
350756
285535
330747
327412
392538
-26857.1
118632
-11793.7
17127.6
14779.1
3297.11
396000
396935
402176
2079.87
1983.5
4844.1
36272.4
6332.63
-5487.29
43175.9
57092.4
-11567.5
35295.6
18846.7
-37346.9
-7075.65
81805.9
3856.81
27299.3
62003.4
-4045.01
-1080.95
-32.1545
2458.63
26182.4
-23985.7
274.883
882.606
3181.54
2923.99
2265.1
371152
369851
94818.9
47000.8
-81624
9698.05
406932
409513
418210
500527
750.867
536266
433820
-242.854
-303.801
1.27733
-1.92783
410494
-43187.9
3764.73
-12.9807
-5.82612
2.79105
96.3374
301.553
-9018.78
154031
8442.21
44852.6
1449.74
-268.527
-101.727
1.68982
-236.642
232.836
257.288
144706
614314
-4290.74
1321.45
237193
233957
-26015
-37860.1
-21191.7
388206
183.574
-221.343
-269.204
154094
6815.97
10142.1
111505
-23709.1
-21503.4
311304
85663.8
163170
285420
677.244
11415.2
327227
-8613.22
242469
31144.3
-9958.1
-12373.8
92952.9
-13213.8
1333.37
4414.88
13741.2
-24989.2
148862
351192
30003.8
11452.4
13929.2
13356.4
441803
276.613
-14247.2
26282.6
140053
-21144.7
35567.6
2917.68
94234.8
62740.2
-3.32042
436718
50382.5
233769
-14587.4
-9344.36
15325.3
437973
218532
316522
1705.92
14437.4
211093
112403
288423
333.594
450.124
281469
22334.7
-14873
-8551.43
-5734
34101.8
392841
239499
3934.01
2071.15
2.38354
348677
186889
188322
968.481
5204.04
294618
16085.1
242807
-104.682
164.188
310.266
-21962.4
256429
21022.4
43691.6
22523.8
1404.34
391639
-17336.1
-2456.74
-8079.47
832.225
29543.2
254766
-7149.84
232993
96715.3
382943
476328
16662.4
228.07
314133
269596
12098
-51220.4
195190
-11071.9
10936.3
-276.886
-59661.8
-27421.7
-10409.9
-25.0147
-17584.9
-14477.8
-34656.3
-10746
-144.119
271200
348416
307786
47427.7
551954
-27171.3
-12827.7
454980
367554
79914.5
33369.2
172626
-179998
75640.3
1946.4
420455
1246.35
-2.10844
19548.8
115355
278706
160093
197548
96414.1
5691.16
-3.89943
-71440.5
221047
-3.7036
159260
-39920
3868.54
-15017.4
-16644.1
-3.37004
-1.24731
3.30618
-0.269466
0.660382
230873
198352
163601
233691
194803
702.761
485.809
1366.04
1510.06
1296
-29664.7
-34657.4
-37766.6
-43452.8
-41589.6
5469.31
5282.35
2721.21
1614.76
3275.73
69294.3
96530.1
109322
92688.7
95032
111.523
220.546
137.641
42.7792
91.5005
-13443.2
-34868.1
5306.08
-5741.94
-14494.4
-22.6587
34.7719
13.4694
-12.8799
14719.5
2846.28
4623.23
28983.2
14606.5
-6817.3
-5345.07
-10042.6
-11928.1
-9163.24
-18.1187
199.307
281.045
73.7064
194.129
-38499.7
256158
440034
114639
456387
304129
435917
554010
552838
-34651
-45885.8
-50268.1
-47783.9
-54130.3
491016
455959
553049
551861
5221.93
4479.41
2524.01
2080
2844.54
55997.2
43089.5
19851.5
32200.1
33369.9
9616.61
6775.41
3899.07
4075.7
5285.93
1398.64
715.823
884.308
1297.1
1188.72
60516.5
43982.3
32072.2
57083.7
42584.9
66468.9
70454.8
51309.7
64291.1
-19242
-33906.1
-28152.7
-14332.6
-24150
399909
74384.3
-32861.8
201947
84043.1
810.869
268.336
108.148
234.967
2157.38
5408.08
5380.41
2632.87
3522.76
367195
344945
311410
338264
338010
59170
21545.2
13471.5
44899.2
27106.8
1737.01
1285.14
6805.31
4161.25
99935.3
48690.6
10584.6
32138.7
36427.7
6488.06
8311.47
6951.8
5722.57
3057.35
1049.37
1266.83
2119.87
133008
95012.6
151743
100875
43509.3
23309.5
1813.61
17526.6
-2480.66
4908.55
2809.82
-1503.96
749.43
1677.73
571.465
160.631
677.484
625.698
77933.5
103241
86245.8
98371.7
5008.26
4187.25
1595.06
2088.42
2455.39
-54233.4
-427740
522893
65317.6
117441
3923.14
9388.97
8291.36
5863.07
348925
125235
396973
361685
392072
3304.98
1012.33
2021.1
126346
127056
113311
118862
583.92
88533.2
49980.2
65150.4
49384.2
50711.3
54307.3
6037.17
4136.4
1585.36
2935.03
292040
276390
277090
284698
279251
1358.91
1662.75
2983.73
2432.44
6953.32
4857.41
8448.1
6998.28
4388.94
3544.9
4055.72
5542.29
4737.57
447527
479614
334852
333101
371044
-4079.47
520.162
-17373.8
-16004.5
-10796
-14615.9
-14644.7
6973.76
1673.43
3445.97
222085
229542
250422
237691
-282.353
-236.622
-90.5403
-142.372
-188.31
2856.17
5142.82
2719.43
3851.82
405837
423006
512412
363704
463391
5927.62
7242.68
5429.83
-177.867
0.931367
34.3782
4.2584
129.618
1010.5
24.2555
400.816
69338.7
415111
424362
450132
467893
439244
2310.46
2863.35
2534.38
1914.4
966.901
1356.01
-1831.72
3273.19
-947.22
266.668
121847
164535
179643
169800
266.47
89.7006
67.1307
241150
263048
266257
236198
255897
196.016
-60.4252
481.3
447.459
519.793
3181.57
4472.68
141357
117366
126394
-20899.6
-20261.3
-20532.4
-26609.3
-24336.9
2064.76
203.531
683.551
38095.2
40427.7
42764.5
1870.19
1417.25
-23190.7
-20257.3
-18188.2
311.845
2643.84
230.463
-37542.6
-80910.6
-17549.5
-65391.2
372149
386469
305109
286711
326595
68869.5
53811.5
45668.7
49461.3
207740
187341
205147
30334.9
34415.1
33936.6
1093.68
2672.62
2346.86
-77.8008
-61.5308
-149.144
-161.501
-144.37
-9346.08
6458.98
14563.3
-7037.31
2155.29
130.552
53.1814
-123.055
88311.6
113158
1334.78
1631.84
2705.88
102.013
-109.065
503.813
100.513
-2258.85
-1100.43
-2965.88
-1445.56
19732
23043.8
20623.3
22313.3
-21447.7
-20160.8
-23012.3
-25335.1
-22243.4
17922.5
17833
19148.6
166264
258459
262915
285107
1621.2
-41294.9
-89336.6
-184659
-137966
-10040.4
-10767.7
-12037.2
-11619.8
-12980.6
4800.74
-470.539
10410
15299.3
12632.6
25626.5
26710.2
28567.2
-80.8563
-498.636
324.86
3625.59
7109.56
5156.03
5859.14
-575.448
-895.166
17.8403
75.032
244.91
210.537
-1777.72
-64.432
-21816
-19581.9
-18725.9
-21614
-21355
-5875.19
-4042.71
-2945.16
-3596.51
-4065.05
1844.94
-11850.2
-10281.7
6833.17
-1388.01
7891.61
5926.96
19262.2
17529.4
16724.1
18284.7
365072
292207
339938
393211
394583
41201.4
42349.5
48470.4
73384.9
65990.7
77641.4
79072.5
91734
80325.5
77286.8
11844.4
10634.2
7412.86
9.13322
-5.1506
2.81864
2713.12
5005.32
3053.76
58426.8
71741.1
-4.67092
5.12885
-3.95792
0.985578
251909
232308
229382
192.172
325.246
185.324
1065.31
1334.22
20.4278
43.2961
29.3422
159879
174702
176419
98.7878
-101.647
140.709
74021.9
40852.7
2846.13
8378.97
-7519.02
-7311.01
-15265.3
-12979
4263.1
19825.5
30052
12189.3
19198.2
1227.54
-344.235
-19222.8
-6643.5
-30334.1
3.21278
163.162
294.505
385051
340954
278150
388601
357408
-60622.6
-8191.35
-12452
28414.1
30430.9
25334.3
22553.4
25823.6
4.66391
2.65553
7.22381
9917.55
11405
9970.97
8822.85
-12922
-16056.9
-15498.5
-14372.8
-2.57901
2.75611
-1.84103
-2.41306
28.2611
132.623
13.3725
69604.4
62918.9
42494.6
54398.3
-30301.3
-21228.1
-21646
-27223.3
-26990.6
71.9935
-288.562
-268.464
585822
428469
148174
-120.707
117.822
-189.745
-27.6904
-27.7195
1470.32
1435.7
15788.8
16966.3
17540.8
100.126
45.4914
4.40075
24.2016
-259.443
-245.92
-188.736
-207.96
-123.925
-234.727
-170.251
-111.56
36128.8
31817.2
38876
-23476.5
-21759.9
-23139.4
5293.22
9811.51
8896.95
6250.05
6759.2
9367.48
11472.4
9720.19
9613.75
193.742
373.226
239.147
310.474
-2636.7
-3793.77
3.16189
2.33732
3.82678
52131.4
-40094.4
-24356.3
202.541
221.728
33.5667
286786
375983
444622
426201
-4253.69
-10715.7
89.5114
-1402.46
30.9106
-177.997
-262.61
-169.178
335.65
375.633
107.314
6322.69
3744.23
5514.83
-10305.7
-9981.44
-11072.6
-12384.8
790.005
1018.39
-8325.02
-6374.53
13912
18264.6
15845.9
15115
21656.9
24432.4
25163.9
461.46
960.142
36865.9
274464
123256
179495
-9693.38
-7693.43
-4407.01
-16061.8
-15634.9
-19735.6
69550.7
45231.4
15444.4
14902.9
15248.8
11889.8
13053.9
11881.2
232351
220041
218589
222903
10562.4
8965.5
74.6099
543.053
83646
123945
123116
114405
-21244.9
-18411.3
-16641.2
-19952.6
149560
152392
180608
175287
9037.1
16790.8
13198.4
10469.4
9063.44
4159.47
6830.36
11651.4
9722.16
288104
337199
292981
304021
6233.92
-36133.4
-45188
-18440.2
-36140.6
-14899
-15870
-16504
-22826.8
-18305.3
21.3628
341.284
770.323
-25428.8
1106.5
-50231.9
-41675.6
212817
196842
157363
181195
-20546.9
-19384
-19972.8
-21054.5
13867.9
12204.1
9803.74
482316
444658
184132
13323.8
13068
15146
16982.3
15651.5
-11785.5
-10682
-16239.5
-15508.9
308073
293967
245849
296903
307035
-3283.95
-6240.6
-3061.23
8996.71
10887.6
8566.78
8375.81
-18125.3
326057
185971
-25782.9
484079
615201
5326.23
-7064.86
-1860.31
-6066.99
-10245
1715.57
446057
491203
-5149.48
-8447.76
1469.39
458337
522481
227895
316743
17441.4
25365
20554.8
11114.1
15743.5
1390.66
2509.41
3361.91
108417
92473.6
73036.9
-211321
621794
523286
164982
153976
134749
-24749.6
-39063
-35880
11553.8
8969.74
59585.2
-35779.9
22630.1
3923.86
11831.8
9962.95
-132196
786587
594345
2932.27
254.819
555.458
1370.89
263063
276117
314729
336825
442278
405821
449246
432765
14772.1
12923.9
12070.8
9153.31
20786.9
16159.9
548742
337689
355.162
239.44
233.433
35843.2
31957.1
51024.7
40447.8
189493
209801
263816
235785
597.908
-2850.59
69935.4
109688
122582
69754.7
95508.3
5762.24
34041
19062.1
-7661.14
7358.28
-9645.83
-5601.35
-60.2777
-135.203
-1.86212
462913
589970
-9.41876
74876.4
221671
863.073
9881.36
6360.06
7531.34
329429
308568
399773
371023
148402
47355
183843
108457
-71400.8
-64467.7
-9737.16
5652.54
470965
422696
252374
-24208.9
6365.21
-213.07
-67.1109
-8134.29
2846.15
16664.8
9166.85
-5010.32
-3374.57
34.0846
22344.8
25276.8
448967
220568
182933
21775.6
25860.9
22061.6
21947.3
292465
278833
301385
351276
67077
270639
284506
-43084.2
-50062.4
-16159.4
-18870.2
-21496.8
25447.6
19565.3
6451.31
13136.9
336250
285407
-202378
557902
619189
-11334.7
-19606.6
-16626.5
-1.25082
-2.62268
-0.169936
54567.5
39483.8
35485.4
17395.7
19923.8
21395.5
-4.30345
-2.05974
14.0326
45.6947
2605.75
2380.59
401471
393114
355459
381215
375281
396860
415905
382685
236.547
-5309.78
-4069.46
414918
685944
574536
522729
55664.3
-49496.6
21369.2
99414.5
39146.9
176551
123397
111445
143634
196061
195197
180324
330134
408177
343650
5079.1
-15271.5
7234.89
19229.4
16850.4
14337.9
488286
130116
5105.03
2861.61
130046
195609
20096.3
34761.3
29026.8
27108.4
14772.5
12735.6
390188
483982
416750
446518
12901.8
11782.7
-16607
-16257.6
-16058.7
440787
458139
4770.38
1255.22
184.242
54287.5
68572.7
26782.9
21212
131725
120918
109832
430000
405797
0.796687
2.82552
24786.8
18415.2
253.622
330.931
233.134
16587.2
17313.8
34658.4
41828.9
-32813.1
-76161.4
-53277.2
496434
422697
-300.002
-284.41
-247.884
-15160.1
-15148.8
-17597.7
13281
12940.5
557495
626254
672329
598731
283014
110853
-1414.76
-0.354511
1.29193
-262.127
-251.47
-13734.6
-22392.7
-26102.8
-25579.7
26430
8693.63
-21506.6
-44450.2
-39060
-8479.2
-12449.3
-11277.8
-30712.5
-15765.8
-23930.9
14524.8
13277.6
16401.7
1347.85
78537.6
54443.9
169240
331519
397252
392758
350270
410833
4025.87
-9582.45
-2755.63
11469.6
31307.5
-1731.97
1793.62
1477.56
-263.573
-172.342
-232.643
492097
225319
234974
224455
208626
216423
238919
227472
58478.4
25910.2
-2.73351
-3.78659
-4.97306
113021
95025.5
345770
362269
314711
333522
-6419.16
-1969.03
-6015.47
-4204.47
-6501.03
-8385.74
-6416.18
427975
399419
409101
401298
412343
187.855
115.335
185960
198232
208496
280364
57084.7
-233527
66105.1
-8752.42
-11604.7
-10502.7
-2939.42
6343.78
307788
311266
195417
-27438
-31564.8
-68118.1
-50712.7
288824
422789
206739
43188.3
19847.9
19710.4
-82564
-75457.8
-1.29283
-2.86603
-9603.04
-15911.9
-35.4672
79684.3
-121311
52046.1
10199.8
17266.1
16815.2
17053.9
-29291.6
-20034.5
-23617.9
-17554.9
-13979.7
-15858.1
-16662.2
-30343.8
-24526.4
-22615.1
48661.1
102765
101292
131451
120356
102854
120621
-5558.45
-3322.07
192550
210649
200860
331.741
-11553.5
-9076.42
2968.25
20331.2
-12294.1
1294.57
1642.85
1543.18
151033
130458
126981
-27273.7
-22690.1
434831
460185
186275
314602
254210
170056
185182
33609.3
27196.1
-9966.11
-9805.83
-10842.4
145975
411101
131753
269.66
413.219
311124
348645
15132.4
-81557.3
26971.3
272861
256906
267169
257670
271212
283870
267262
177717
259544
249341
244746
254394
-17727.4
-15090.8
270904
269940
257597
94208.2
56385.1
-2.31804
-64071.5
-15039.7
-18099.6
50898.1
40831.5
-20057.8
402335
299674
321274
214313
-9476.33
-12024.1
224.665
1455.47
974.324
356.56
-9081.26
-7138.73
-8499.64
-11465.4
-16675.1
-15998.2
82606.3
-42.4343
1648.31
1167.45
-162.846
-286.525
283675
561804
316.006
272383
284141
272990
142615
120831
109994
134612
1366.11
-7229.95
284484
250766
17981.6
-6889.92
-6933.07
5758.11
-31284
-27848.2
463745
686600
319296
-18161.5
-1940.55
392184
409739
408210
607782
509631
507903
350825
383578
292920
225718
288126
-22123.4
-2011.32
-16038
246415
253685
251066
299624
302734
281338
316806
259582
268230
240921
246175
362307
269408
-117338
123930
-31511
398478
-69221.4
5272.94
210597
181762
197983
224532
495671
355249
352851
280332
108416
368157
1310.14
1540.19
-17882.2
-11489.3
-12816.1
-12789.2
129789
144115
444033
383372
502931
400184
416577
440171
18944.9
30605.2
391345
382275
402303
283032
274820
284999
1054.76
1029.64
3550.26
135849
112281
112381
107830
-8401.69
-8632.98
10464
14617
159992
126717
31046.4
31939.2
28679.6
218803
-15906.7
-12942.8
259591
260953
274203
-12654.7
-10175.6
463042
490791
616378
570826
393416
424319
364239
369706
17583.7
-12003.7
-10768.1
261996
419735
370000
333234
344592
-7102.39
-8492.22
19606.5
17089.3
403269
418720
371648
385941
361650
310530
371825
343315
217443
66570.5
88826
25005
145411
105216
-12845.6
11495.7
11512
138790
119963
170492
330063
422852
150318
-23738.1
-68593.5
345892
74638.4
1747.08
20023.6
118074
148584
127444
662040
487740
213433
242506
-2.36635
-3.55278
-1.00925
-3.36136
-2.1825
161303
142933
656773
87518
395999
382738
-16202.7
93.1417
-20706.7
-20224
668.427
1003.66
298941
254070
302224
382015
288040
325904
9976.28
208060
299672
196410
167440
-4940.57
-6222.55
47756.6
-8626.58
350342
363340
277847
145715
115912
272016
31639
-34578.4
-31197.1
66914.7
154226
-3.56784
154768
148938
243770
265326
249269
593.885
653.842
363425
407499
397295
372139
366262
176190
156452
242537
395080
33983.1
212270
404833
482842
769.599
-448.025
157148
157430
174472
439104
424510
395523
275707
302007
433461
267394
83808.7
265359
-60730
-37021.1
-31453.4
-36966.4
389468
345788
-970.649
84120.2
62878.2
-26570.7
-28860.9
5087.05
47686
-26685
173685
96315.2
267386
-19238.3
106971
398379
394876
195999
-5316.53
-11798.9
SCALARS x_pstress float 1
LOOKUP_TABLE default
138446
6381.08
11.0864
534.467
-0.150178
0.0437411
39.5268
2507.44
1286.76
398.901
1326.39
-15147.1
1678.91
-7339.62
1966.63
-8279.16
3651.63
-44279.8
7858.81
-76589.5
25814.7
-23377.5
972732
683682
666029
85879.9
961083
598719
872002
916747
420517
871455
850414
779774
341058
1.00501e+06
682009
2.34242e+06
843008
1.92558e+06
-6005.31
154195
-3402.59
707922
650116
576864
487604
440895
381560
266869
238314
166267
142784
126739
114404
108695
77776.4
81940.8
61243.8
65042.1
59280.6
54024.7
50891.1
44146.8
39703
35687.2
31990.4
28841.4
26247.7
23808
18912.5
18049.7
16216.9
14446.5
12651.2
10778.7
8737.1
6462.98
-1348.36
-7516.82
11006.5
7078.3
1844.4
1683.85
177.352
162.609
122.724
-10.7814
109.839
-53.8015
5.95213
-39.5605
-8.93912
84.6243
125.746
90.8519
86.9817
87.657
80.846
233.378
359.378
691.605
953.829
1008.96
1240.74
1278.61
1259.28
1190.85
1082.35
943.219
783.183
611.075
439.166
276.889
143.323
151.219
14.1703
13.4728
192.658
190.382
345.956
506.281
665.43
991.802
15.0938
8.8828
0.454733
0.66543
0.455693
0.301869
-0.0349974
0.0354323
-0.573695
0.607174
0.230793
0.588466
0.00254891
-0.0155147
-0.0527632
-0.499769
0.601335
1.00461
-2.39853
0.915721
10.4523
30.3739
221.24
219.205
475.379
1115.05
1766.07
2680.83
314.007
-61.3128
-46.7072
93.0202
5.93082
412.849
67.8931
343.59
97.0474
267.192
117.853
220.55
182.767
263.014
714.361
3.45842
-1750.35
531.612
557.997
607.72
639.385
2482.04
1111.68
2489.42
3729.94
1304.73
-387.241
152.216
979.23
1292.78
1083.18
2878.36
1341.07
1596.03
3899.91
1614.67
897.151
940.686
1514.45
1613.22
1315.45
3374.39
1573.31
1870.49
4536.44
1957.09
275.657
486.985
2172.72
3156.97
6337.82
6673.56
2254.89
4192.44
6935.12
2047.39
15.7168
475.34
4152.1
5476.24
9551.79
13760.4
5615.98
8382.43
16753.4
11116.7
-38506.5
-3382.64
-842.072
-496.196
-301.672
51.1505
397.218
585.018
1290.65
1137.96
2451.53
2622.64
3920.91
8352.11
15591.7
31767.3
21271
58861.8
83265.1
52108.7
-16385.9
-30322.9
-18265.3
-12255
-88510.8
-161885
-24012.4
1.88479e+06
1.60801e+06
1.48277e+06
548672
210249
-21742.9
-68224.1
-156718
-73302.8
-216752
1.71843e+06
1.29209e+06
1.11754e+06
577434
151150
39533.9
23958.5
12759
-102740
-161570
2.11923e+06
1.72042e+06
1.49415e+06
196059
182170
-7185.46
-48863.6
-127201
-66906.1
-402604
1.94564e+06
1.53628e+06
1.50523e+06
1.94909e+06
133935
204049
96370
-58838.7
-1143.25
-429512
1.09497e+06
1.01938e+06
1.00543e+06
264120
238786
7281.61
-19351.2
-71707.7
-33339.3
-394654
1.61059e+06
1.42104e+06
1.37341e+06
903573
383741
118081
118957
-44155.9
-39484.7
-340900
1.23404e+06
993102
1.27503e+06
573368
547806
28548.7
12656.2
-52424.8
-20513.9
-240193
1.50626e+06
926642
1.15991e+06
679306
643313
26299.3
-30891.9
-108617
-33510.4
-383329
1.86307e+06
1.37843e+06
1.34231e+06
1.33481e+06
514695
195756
134151
12380.3
133.664
1707.5
5272.6
17266.4
37661.3
78842.1
1288.21
4709.39
2476.89
-3798.08
1897.09
6308.85
-15726.5
10009.3
3057.79
599.525
4461.72
186.269
-6361.74
569425
-176414
578248
597459
438791
444435
2315.91
299.135
806825
-2997.03
-1541.6
-383.418
-80.9367
575.061
947172
431095
170307
270749
169415
352.357
106040
-6927.93
-830.374
-1006.74
177.077
479.932
-20348.7
-76998.6
1020
1264.49
31091.3
1438.88
22739.7
-20335.3
545435
391.747
384.311
10754.2
14201
263.63
5449.82
1996.7
2591.62
2984.98
39221.1
575.891
567.298
-10672.5
36760.7
75709.1
6491.32
6758.37
4236.11
354.203
194531
497.31
81.6824
-7982.12
5056.8
4368.72
4346
5533.39
8717.9
8842.71
363.502
5836.82
3129.27
2322.29
13104.7
13736.2
-5586.48
-7601.1
-34166.9
567.297
221639
158730
353433
408489
-159.087
135.483
5532.83
9955.87
15494.1
383731
8216.63
8397.27
519977
647130
-358.795
-32.9957
2.76839
14344.5
40856.1
442621
196764
412894
-113.129
3278.64
-10268.7
-870.407
-4751.03
14483.9
15705.6
7169.04
6292.02
4110.67
2517.29
-493.865
18093.8
167496
7288.34
11735.2
7544.93
12655.9
3306.45
-6646.26
3137.05
-361.32
327.984
1784.47
28321.6
331.02
123744
3150.86
2973.26
518144
2295.66
3343.08
-1321.71
3965.72
6363.72
9538.03
9586.6
31350.7
9.28851
686889
128613
154912
195297
123096
8492.58
40502.8
-10371.7
48929.1
27439.2
-84746.1
1856.94
-2487.01
-616.771
9339.13
618526
168880
218244
1183.63
413446
414648
-11925.1
17493.7
887.821
157.407
219.624
225.412
3566.09
69075.4
57406.7
36564.4
99359.4
46117.8
28625.8
43042.6
23114.1
-740.396
6854.6
3870.78
72503.4
-367.347
-126.247
-44.4469
2104.66
3389.7
4969.61
4487.71
294914
19362.4
4749.69
-5869.05
552728
203303
274712
368333
378270
34009.2
204.597
82281.5
20688
3357.11
260110
4.17401
2663.19
-217071
125482
4254.74
1770.85
-1636.99
135577
5038.86
35821.3
138484
16417.8
13116.4
25243.8
264590
278926
336331
342546
208255
1418.05
50279.4
541.682
11086.2
8629.59
1055.05
425975
422475
483190
786.918
517.668
1443.81
26083.3
4198.08
2969.22
13865.6
24548
3034.13
-16971.3
13117.8
11336.7
888.705
42336.9
22146.2
18423.9
9096.3
4370.21
1601.12
2084.35
1968.7
18589.8
1991.96
-62.1146
245.869
1130.47
857.093
693.774
378633
378304
-133923
-118683
40977.2
9330.59
479191
562349
572821
616664
-108.76
619427
568143
146.11
304.354
15.4055
11.8111
576253
33802.5
1473.65
403.702
-247.448
35.0981
146.448
540.238
-10548.9
13655.8
4923.69
12408.3
485.128
428.195
364.926
6.77399
380.681
346.047
-34.8705
-54080
728021
-1289.77
1972.71
87233.1
83899.1
4558.43
11206.7
5307.39
291604
287.456
351.035
296.136
-29304.4
362.811
5930.05
28956.9
5765.09
4471.33
576001
147988
312760
880120
-42649.2
-7858.15
499398
3245.98
117003
16001.9
2997.33
3249.77
34608.2
2454.45
152.969
1376.8
6004.31
2248.67
24796.2
736673
16872.3
6422.43
7556.34
6872.07
551742
76.9399
5429.2
16279.4
54328.1
8010.87
94125.9
603.856
-16991.4
25294
3.55803
584307
103894
97949.9
4214.24
4759.76
8197.16
177306
114683
295785
8085.5
9233.02
77539.5
124942
234369
96.4471
1794.5
195172
14649.3
-170.426
-459.928
3017.81
20972
344892
111531
8728.77
404.215
1.94662
387060
67055.1
90344.8
193.271
1782.01
227183
1561.24
148301
4.77358
516.263
316.496
-59131.8
152413
8883.78
12105.1
15000.5
442.744
390731
3329.22
2670.4
-19582.9
208.849
18764.7
131369
1244.92
99280.6
39922.7
477868
138669
10009.7
285.338
364195
190120
6291.82
3054.61
145983
-938.358
30209.2
321.813
18617.7
33824.4
-24448.6
84.176
4771.32
4347.46
6668.71
-74.7744
227.219
-11498
650698
180515
-50499.8
496607
-520.789
-59802.2
133854
684861
15203.6
21407.7
-123238
220492
37570.3
95.0955
433799
466.768
17.816
12823.2
54609
211459
-21536.6
321418
-58621.4
7410.17
5.03696
16412.3
-184368
2.41447
51256.3
8518.17
9400.19
16479.5
11665.4
7.23195
8.64907
5.01791
4.27202
6.90181
107892
66673.9
89319
121981
96366.8
149.692
-108.725
190.056
405.588
222.271
-15989.8
4019.97
10366.1
9617.76
3008.34
2529.44
2470.41
608.881
509.544
1077.43
14967.1
22597.5
34676.7
33861.5
31030.2
167.458
349.028
398.213
149.721
287.997
6463.22
21606.3
50927.8
12200.5
38866.7
132.771
332.692
22.9119
36.5684
1270.47
1023.99
5200.85
10643.9
7638.66
5358.47
5645.62
2141.28
1374.75
1731.88
-72.0576
226.023
168.386
-286.501
-1.95736
160698
-33790.3
317433
867692
424067
342099
546510
645622
597143
10117.8
11038.4
11780.8
4362.83
16204.3
630086
647105
775487
707492
2145.02
1664.2
417.481
441.516
656.285
7342.69
12698.4
5341.15
335.944
3400.81
7375.03
3709.54
2186.58
3252.11
3352.11
454.639
246.426
356.168
328.545
350.023
27285.5
22915.6
17280.8
23083.7
20403.5
30133.3
40366.3
30280.4
34087.6
-1474.98
10111.9
9588.65
2418.35
3980.73
73171.4
-7154.55
33813
-19297
-58950.6
326.619
345.766
26.68
51.7112
660.47
1982.36
1823.66
874.006
1187.98
380702
328374
279363
349022
342134
4690.43
-9003.85
-3230.34
6148.11
-2413.65
2082.83
3324.87
7226.43
5501.28
28175.8
22816.2
15254.8
29459.2
19031.8
2989.11
4259.45
3247.04
1789.13
1243.2
413.868
969.927
1000.52
30138.5
23707.9
32613.7
36025.9
-13717.9
-25187.4
-14826.5
-13382.3
5043.87
9113.13
6179.4
4887.15
5853.04
124.198
-294.953
-476.981
-309.878
-396.417
40469.5
45628.2
52347.8
57495.3
1502.11
1135.55
210.477
497.153
630.371
-92424
381722
176612
-44918.9
127488
1214.96
5462.75
4525.84
2108.76
375690
276511
466231
402090
453826
1030.95
-157.345
344.651
42402.4
57341.5
54444.3
50068.3
36504.2
39989.9
52571.1
42513.9
35169
33466.4
38721.3
2039.04
1681.63
171.736
607.279
277682
212357
210443
245487
231375
362.317
413.405
1325.64
835.842
3248.04
1574.37
4208.82
3292.75
1746.76
1126.84
1259.52
2394.04
1923.92
350102
425735
213732
170705
248222
-2676.37
-9235.33
2065.76
1312.92
2991.12
4210.02
3152.59
4317.19
486.272
1112.1
130363
123861
158548
145871
369.749
156.186
108.437
497.427
301.524
931.305
1933.85
917.599
1454.21
519568
488437
581965
476739
551904
2072.94
2929.3
2258.74
210.422
161.756
-248.3
-63.8601
-431.783
-169.876
-427.121
-330.032
45417.3
570339
566502
648226
676362
623631
756.374
1034.77
822.428
593.722
324.191
233.785
3591.88
7114.11
2353.68
3594.94
33078.8
11625.4
39658.7
30442.9
-260.875
-408.052
-422.677
139424
166569
171696
121450
143286
10.337
801.134
538.635
19.1468
770.172
782.65
1811.36
58690.3
53285.4
67581
-9558.63
-2846.56
4775.48
4749.52
-552.11
861.071
-385.008
-282.003
28294.7
28725.5
32434.6
-40108.6
-43965
-36985.5
-24704.3
-36938.9
-104.683
868.791
162.129
14006.7
26618.8
4072.8
32120.6
411171
378938
355729
454942
432582
1967.46
-4550.32
-10177.5
-11688.3
103093
101102
114168
23116.8
24813.5
26427.9
-43.8009
742.781
469.901
581.735
301.898
242.165
445.396
427.509
2891.53
4309.75
9374.92
3683.84
2966.33
496.187
347.472
618.564
36623
56684.9
238.579
448.08
911.224
434.549
182.649
-29.2109
-32.351
1865.24
64.8565
1140.69
16.8505
13999.4
16288.7
15202.1
16925.6
4703
4609.86
3351.29
3936.75
1592.74
11952.7
11707.7
13511.6
20630.5
92339.2
74366.6
57214.7
-18968
44457.5
40825.3
46013.2
10943.5
1914.76
2401.15
3016.21
3150.29
4837.3
1834
3259.44
5147.03
4056.53
5279.18
18468.8
19778.1
23130.3
374.881
2792.95
977.807
1249.74
3583.27
2116.43
2900.71
52.0911
-32.7508
205.204
378.54
327.868
285.778
2971.99
7732.34
3592.2
3466.77
-952.778
1129.09
1286.23
3852.23
4671.74
3551.68
907.888
2030.83
8807.67
4318.03
3902.18
8190.71
7129.38
3796.33
2181.06
12401
11609.3
10724.9
12298.4
196049
131761
248726
289457
240811
26936
23282.5
28009.4
31524.9
22817.5
28986.2
12782.6
21622.8
10298.9
12446.6
7859.76
6635.64
3841.09
4.31951
24.0606
7.18762
780.197
2124.26
1433.22
26130.3
29642.9
2.75915
5.39022
6.06249
1.46823
135636
99746.3
109068
16.8657
95.896
-300.71
275.907
326.239
54.5619
78.4937
46.6489
69105.8
81610.5
94747.4
462.651
-169.908
-349.996
143595
79041.9
16154.3
51945.4
1952.16
-812.943
1130.92
3253.87
7971.08
10582.8
12897.7
10333
12411.8
761.929
-109.724
-14598.4
-64189
-11717.5
697.016
588.41
643.059
345580
214911
137198
386707
269669
38264.2
1492.34
-35.7638
18213.6
21262.2
17607.6
14820.8
17161.8
1.17267
8.3024
4.64246
5196.55
6415.49
5307.99
3916.65
-222.812
1226.02
1140.2
1844.82
21.2505
68.0465
12.9357
21.7886
207.451
210.662
46.7321
16658.9
24060.3
14328.5
18046.9
3039.86
4912.16
5959.23
2423.47
3190.37
-301.724
230.594
130.672
747753
150536
47152.5
746.115
725.242
670.865
345.11
733.266
782.918
767.637
7854.48
9725.54
10694.3
167.705
134.021
37.258
72.5162
246.369
313.216
231.532
507.24
650.578
360.965
329.308
406.949
23744.5
20696.2
24435.1
5509.85
597.897
4664.41
2047.18
3976.85
3521.1
2234.38
3031.66
5092.46
6492.73
5510.45
5485.88
948.88
607.626
468.053
823.468
398.539
1537.06
1.35154
2.82859
3.58052
16494.8
40113.1
35492.6
385.941
348.391
205.073
256474
385489
409367
353423
-11336.9
-7984.93
-2463.91
-633.864
215.716
316.641
391.025
492.047
278.999
677.064
102.09
3346.5
1523.65
1939.45
-671.181
1620.65
2929.43
2472.76
-108.777
-168.001
7088.7
1381.41
9555.41
11995.5
10513.6
10195.5
14486.7
16689.1
18692.2
266.628
420.582
-3993.97
-127087
-181765
-125533
561.183
2353.25
517.256
4445.73
3523.82
2170.5
15411.9
13950.2
7192.66
5719.91
9346.8
6519.39
7788.43
6180.67
99920.7
101536
89118.1
103789
6036.53
4986.32
-310.961
-97.3293
21253.8
36427.8
29568.3
25218
231.996
-48.3753
3159.5
2350.06
-26592.6
-23481.3
14600.4
3308.19
6488.01
11559.8
9659.09
10393.6
9215.48
6040.71
2893.56
6466.52
5470.82
307847
360383
252576
286108
3298.9
-10955.2
13577.3
-198.555
4639.76
-5595.6
738.475
3438.88
4107.02
-554.252
254.852
43.7661
431.333
-16636
-7790.55
1494.18
8763.72
71044.2
32746.6
7371.7
37497
3570.25
-2288.69
-725.998
640.882
8891.88
7495.72
5059.8
505112
693410
743480
7256.25
7281.8
8679.68
10195.1
8985.33
-9069.55
-3311.57
2952.85
-228.924
80310.9
223251
116866
62526.6
115009
-48.5167
1803.25
358.892
3780.53
5858.02
4121.27
3637.51
383423
263120
620314
306045
99035.1
67923
9240.33
4922.83
6353.84
-105.19
2441.18
1155.62
-15769.5
38763.9
-25.9807
2306.76
981.49
264310
200892
442020
307299
12872.2
16768.5
14280.2
8130.64
10544.1
306.34
907.232
1507.74
24720
16989.9
-952.936
750280
-18402.6
38386
47084.7
36868.3
39645.7
10418.6
9761.47
14510.8
6332.69
3890.14
-111155
-80953.5
-10286.2
1708.35
5376.71
4019.46
915464
238125
169548
935.048
-42.0432
-11.7787
387.211
258040
239616
241876
249190
443141
473251
511762
454328
9237.17
7653.01
6227.21
8674.69
14220
12672.3
28316.4
453788
450.869
326.433
511.436
16654.8
11040.4
18503.5
15379.1
85359.5
166549
62724.3
107705
3000.94
4624.89
-59357.1
-75720.5
-78289.7
-104718
-81889.7
-33134.6
-13582.7
-31291
1277.86
1760.35
165.52
-397.426
181.6
235.228
15.144
795526
814575
534.459
-107650
-200280
-175671
4273.15
2535.7
3387
261236
283374
410905
329209
262490
111121
314309
207218
6728.1
17974.2
-5761.86
-13897.4
742180
581445
419796
5306.78
5418.67
333.934
179.336
3406.18
7070.05
12951.6
10787
3637.36
3586.35
119.772
15215.6
16870.3
-63637.3
57414.1
117688
14103.2
16303.6
14946.7
14827.1
237190
210727
273318
16875
121691
111609
105547
-10919.9
8380.98
3684.66
-6690.84
1117.66
13680.5
13504.1
8121.05
9290.78
-18290.6
52462.7
550747
-27723.5
-53250.1
4215.75
6508.62
4844.68
0.327479
1.08845
-0.122887
-3052.14
-4420.35
-10401.8
11200.1
12632.3
14399.1
3.23823
1.56648
-132.259
-352.767
76.0163
1482.07
443403
470271
388701
404456
402687
24232.7
338944
199557
7522.32
4335.26
4715.85
345205
269058
554539
461346
-110570
-133622
-104424
-89655.3
-145423
135286
46588.1
78389.2
96482.1
41979.7
53497.6
50974.8
42563.3
405622
225561
-11229.5
-43769.1
-32588.3
12928.5
11109.1
8487
80526.9
457750
1780.43
665.55
21895.8
35185.6
12187.7
17525.3
17715.8
17292.2
9154.58
7842.06
484940
613129
542209
574428
7238.92
6203.61
1293.12
-2030.25
1542.03
600431
544061
-3287.39
-1389.78
-73.9379
985.247
15912.8
16688.3
14464.6
-56900.9
-19953.4
-69714.7
90433
51372.7
0.319644
0.98474
14470.3
11131.1
293.35
293.775
331.138
10223.5
10679.5
17687.4
20608
6785.85
14533.9
17655.8
-20770.7
623413
325.459
316.367
237.486
566.629
-4089.26
1629.35
7850.24
7562.7
222166
605562
845870
581864
238417
56884
3112.07
1.64067
1.56139
333.735
333.65
4881.1
5172.42
-1523.19
6325.01
388.591
3877.07
-5165.41
-1727.68
28108.5
3374.18
2854.62
4103.8
7878.96
4583.36
4832.59
7796.6
7103.79
9140.52
245.131
9617.33
-3036.88
288930
551597
498809
676986
438364
422986
-5129.22
-22050.7
-9188.19
-3365.35
-2335.43
6775.26
7034.45
6249.39
349.32
293.246
320.521
191924
82543.1
101398
81984.2
51521
67585.2
110364
86640.5
24702.6
14904.3
13.4746
4.85472
8.53116
29312.5
21902.5
342661
422482
305177
354465
2936.31
-1969.97
859.322
251.58
3232.65
3141.37
3067.54
437940
422302
448151
416981
425697
257.017
189.434
80008.4
78648.1
89315.9
350591
101722
578291
604717
3090.57
996.864
1135.7
5599.52
8567.25
332064
512687
330257
-5498.54
-13976.3
23978.4
22371.2
213745
201702
104778
-85922.2
12841.5
12578.2
19506.2
12638.3
11.9979
12.1767
4376.69
6621.25
152.616
230259
265195
483267
9082.49
11003.3
11035.9
11282.6
2020.72
-2237.75
-442.579
3654
3215.34
-2948.39
2710.25
2905.05
-2677.24
-5755.32
-41639.9
23727.4
-8779.9
-1372.45
3521.78
34071.9
49431.9
5582.71
6745.35
34423.4
61052.3
39252.7
1019.93
504.855
1820.92
2666.17
45232.9
14454.8
99.1291
156.935
127.114
-17544.7
-26419.6
-9953.52
2372.23
-593.816
609612
700453
647497
692221
595353
-2442.66
14380.9
21213.1
15300.4
2972.64
1408.23
2658.72
-217615
151368
765721
150.312
508.92
243710
151118
9262.1
-173445
-44181.3
195781
154988
181029
164101
191884
240067
195161
418279
155425
134106
123047
138571
-2172.05
-5309.41
409227
318683
290588
181808
109003
14.073
-134144
6124.95
5799.47
198430
43387.8
3349.18
1.17248e+06
615545
945208
752098
6182.17
5979.78
323.286
347.254
233.577
13.4828
2032.16
772.442
755.748
3824.13
-214.71
1243.3
18585.4
-1131.64
146.854
166.443
315.646
353.52
-216626
-97981.7
170.042
194550
213910
190441
44483.4
9338.75
-24024.1
29758.2
796.163
6269.38
241886
164604
313786
1945.31
4240.06
-2211.51
5011.58
4363.05
435056
300191
311368
4900.34
-1341.67
460979
469430
457393
717243
612966
666963
366361
374822
154947
169978
215041
5438.45
-1276.84
-18759.7
126826
147198
142277
261558
278982
250045
270283
165176
185337
117457
126571
427774
126429
376332
381277
13179.4
-150125
-10051.5
-29207.9
67795.4
56303.9
66086.5
13402.8
39804
372297
373049
246223
-79124.2
126987
246.625
207.337
-2502.69
-1970.86
223.421
5241.49
-48677.5
-28352.8
541274
470469
555424
359049
291257
-20823.3
9474.22
11543.4
412291
501578
482780
219679
263404
249813
1297.11
184.422
2092.2
-42195.7
-30581.1
-10774.4
-34662.6
2038.12
3013.7
5253.74
6740.93
-29857.4
-56467.8
18798.8
19802.3
19142
79534
4941.24
4806.02
153178
148638
148884
4228.96
4230.16
682456
722361
868648
756284
538076
608263
640027
556907
11218.7
-5718.42
-2194.65
162005
561161
545326
547938
657062
1128.89
2257.98
12793.2
11290.8
506559
562411
452007
403893
393697
275776
376073
327806
155182
90789.7
155765
115277
677801
473894
-6934.22
6006.45
5756.2
31249.6
1647.27
283785
586116
860726
388848
-45644.6
-4998.46
624100
862271
133.896
12528.6
24859.7
50698.3
45872.8
979942
753024
145719
136235
1.79624
3.46677
3.14966
3.21857
0.920714
18725.2
38016.7
903951
-15592.1
410273
400392
4979.95
-5455.73
5644.98
6008.09
346.476
235.669
531168
625962
693638
480935
217262
261659
4801.54
166372
529511
394928
286329
2059.6
1858.06
118248
-47509.6
417824
530538
296280
47042
20513.1
197185
20428.9
7390.22
4919.2
67453
-1261.63
3.17632
6774.37
-34557
121354
178009
140163
2425.92
888.841
433967
508965
493107
405749
427820
60701.7
50863.6
122046
408146
22179
563375
561199
747412
1724.91
4140.63
61564.6
66287.5
73020
657681
452574
398012
203048
263709
452447
181097
53305.6
-302082
-14744
7108.47
1142.24
7672.53
504737
410934
-3098.95
278097
100408
21750.1
120398
-1239.45
61893.8
23186.3
414412
620307
456276
4213.77
24664.3
491065
527799
443330
10807
1782.32
SCALARS y_pstress float 1
LOOKUP_TABLE default
-84716.1
-11475
-4.88651
47.4312
-1.96482
-0.416622
-9.57827
-659.977
-5075.31
-21007.1
703.923
-50346
848.909
-70644
987.242
-77899.8
1408.65
-132614
3145.35
-261589
15921.1
-691893
-4.60656e+06
-1.24552e+06
-3.55243e+06
-2.22469e+06
-4.90839e+06
-822015
-4.81312e+06
-991931
-4.57794e+06
-618919
-4.47864e+06
-924178
-4.95837e+06
-777746
-3.43554e+06
80568.9
-4.84955e+06
498890
-15351.1
-19310.1
-16853.8
-174895
-170608
-209430
-270049
-282453
-295616
-310618
-313935
-316989
-308221
-291571
-269592
-255764
-230153
-180895
-172298
-126883
-109890
-94081.4
-86292.5
-68911.9
-59341.1
-51476.5
-45048.1
-39796.2
-35596.5
-32323.7
-31211.2
-26291.5
-25099.6
-24315.3
-24050
-24430.2
-25770.2
-28828.2
-47295.5
-32139.2
-4998.01
418.464
-11608.9
-11105.6
-14468.2
-14515.3
-13366.6
-13402.5
-11118.1
-11164.3
-8590.75
-7348.03
-6099.22
-6071.54
-3883.7
-3926.2
-2148.62
-1431.45
-797.17
-884.592
-46.6075
-4.38953
10.2731
18.1648
17.2996
17.5917
10.26
4.90281
-3.14137
-9.9715
-14.2251
-18.4369
-21.1487
-22.9937
-20.6882
-5.71769
1.42026
3.07249
1.78015
-19.5797
-23.3888
-23.8338
-1.92991
57.0969
-19.5112
-38.4008
-37.273
-25.9607
-15.7022
-7.72147
-2.1411
-4.27227
-6.76804
-6.60605
-6.07582
-3.52848
-3.62853
-0.400267
-0.481025
-6.23705
-6.47811
-12.1979
-22.2341
-22.471
-18.076
-9.07986
6.60656
-14.4075
-9.26463
19.536
89.0447
149.086
-3976.84
-7719.27
-9760.35
-12180.6
-14369.7
-14214.6
-18315.3
-18217.6
-21739.3
-21686.2
-24029.8
-24004.2
-24134.6
-22777.2
-19782.3
-14772.3
-5769.61
-5421.57
-16984.4
-8685.55
-2866.92
-3529.58
-590.172
-181.579
-2772.47
509.461
-38892.2
-37794.9
-15064.5
-7401.99
-1573.36
-3832.77
-736.162
-604.721
-5923.73
-2291.28
-45357.1
-30012.1
-18497.1
-9194.81
-2215.37
-4687.91
-836.629
-726.64
-6466.82
-1641.38
-42114.4
-20384.5
-7159.38
1278.08
719.596
-1818.97
-871.079
-1126.45
-3851.53
-6030.9
-105031
-102342
-31407.7
-8788.64
84.2745
-6645.07
-2380.29
-2272.4
-6457.47
-3564.21
-407721
-286632
-276079
-274562
-275212
-275128
-277609
-277561
-274786
-274860
-255546
-255710
-197191
-197379
-49918.6
-65523
-16271.8
11146.2
-17787.9
-31464.8
-1.11921e+06
-1.12056e+06
-1.10675e+06
-1.10588e+06
-1.5889e+06
-1.41745e+06
-4.32657e+06
339142
98618.2
34266.6
-171474
-451495
-956853
-1.30601e+06
-1.8367e+06
-1.93477e+06
-3.56042e+06
-1.24668e+06
131478
4329.07
-82983.1
-415052
-697235
-958293
-1.2817e+06
-1.42899e+06
-4.75235e+06
480785
190589
64304.7
-312472
-234330
-904164
-1.27538e+06
-1.8561e+06
-1.9382e+06
-4.70422e+06
371168
79974.7
139150
205641
-89734.6
-100784
-459564
-1.18452e+06
-1.22697e+06
-3.92062e+06
393536
144713
65812.3
-173819
-74607.5
-678647
-999164
-1.47207e+06
-1.51544e+06
-4.26948e+06
198018
84273.6
111333
-89667.1
-161362
-382807
-341828
-1.41214e+06
-1.44297e+06
-4.1624e+06
-2.33995e+06
147714
-261677
-149708
-49286.2
-593287
-972777
-1.49746e+06
-1.53263e+06
-3.36106e+06
-1.57772e+06
107008
-311017
-165493
-68696.5
-701491
-1.19625e+06
-1.88242e+06
-1.98708e+06
-4.73265e+06
363197
72739.5
52832.1
270885
45436.3
-14509.7
-32702.6
-27042
-35384.5
-10986.6
-15956.4
-28140.3
-8032.49
-53494.9
-64688.6
-75620.5
-70076
-42152.8
-41671.3
-5059.17
-63452
-67020.9
-151297
-5505.6
-287873
-8715.91
-269460
-295826
-855603
-406721
-510082
-518557
-553371
-27813.8
-415.556
-368099
-51453.1
-51665.2
-52796.6
-56044.9
-58536.1
-379896
-645140
-602997
-600326
-574448
-17.406
-674788
-125902
-109509
-127004
-11653.1
-16637.8
-605842
-669036
-6721.92
-9760.57
-61910.4
-26584.1
-41425.5
-272618
-111873
-80.7679
-23652.7
-23585
-28594.1
-2077.73
-63542.5
-8545.27
-12620.3
-13020.7
-134501
-15591.4
-272.136
-791604
-642986
-257005
-17058.3
-18295.1
-12657.3
-150.55
-737241
-4405.72
-2956.59
-38903.9
-70531.6
-65868.4
-77759.4
-70845
-83304
-76627.2
-120260
-60430.4
-118313
-129517
-89964.4
-68682.8
-641703
-581898
-539973
-495018
-746073
-742506
-477079
-460857
-2248.91
-31.657
-78640.1
-56164.2
-60442.5
-704945
-48599.6
-45488.1
-351512
-326377
-1276.52
-27061.4
-4.4559
-97185.2
-560236
-328560
-514392
-456322
-164568
-154981
-182450
-174691
-195191
-191576
-167249
-204307
-16733.8
-12856.7
-9058.25
-678.97
-97367.6
-658619
-37929.3
-41537.7
-34049.8
-34626.7
-56836.5
-61378
-72566.9
-800.75
-97.2488
-32231.6
-175298
-146.044
-368461
-906093
-42702.3
-675324
-9261.5
-12034.6
-29773.9
-16523.1
-21011.9
-22249.3
-68521.3
-209131
3.63176
-299130
-632485
-512307
-465267
-434118
-29103.1
-269953
-487832
-447599
-433894
-746941
-26220.4
-40511.2
-40452.9
-25565.2
-295887
-382396
-423658
-6220.97
-610135
-519440
-211858
-53095.4
-5507.87
-208.286
-124.501
-429.679
-99667.7
-401521
-386689
-393300
-693148
-347129
-312876
-431743
-319362
-231738
-132540
-50385.5
-689480
-468.493
-270.74
-934.793
-10926.7
-16323.6
-16092.2
-19304.5
-694893
-258310
-43755.2
-569520
-613047
-384261
-394928
-478674
-486577
-302661
-53.6395
-478145
-52001.2
-17268.4
-451135
-5.7678
-32901.4
-515440
-581164
-248097
-27558.6
-41274.1
-744661
-24278.6
-81451.7
-708780
-42908
-31067.3
-80212.8
-611217
-460999
-451556
-451171
-699040
-104521
-187964
-47392.2
-24519.1
-21797
-12801.8
-455567
-421139
-375896
-3611.65
-3469.35
-8258.41
-48361.6
-26155
-34705.4
-131968
-114075
-33844.2
-205811
-24618.7
-72979.8
-17008.9
-500148
-334453
-300317
-295896
-44816.2
-27202.6
-32306.1
-29686.2
-34627.5
-69598.8
-1080.14
-1660.63
-6437.12
-7981.93
-4480.93
-451811
-406339
-911016
-717402
-353335
-103879
-406172
-357041
-348556
-409414
-1614.35
-473925
-327949
-346.424
-307.612
7.28388
7.13893
-264168
-291559
-10630.9
-113.48
-421.959
5.0706
-78.5905
-133.499
-265716
-495915
-23760.1
-486661
-20339.3
-172.425
-122.178
-1.6146
-121.238
-268.673
-571.566
-580624
-507084
-17586.5
-281867
-736705
-833760
-68101.3
-96260.4
-48450
-684319
-87.939
-168.964
-270.531
-431307
-273262
-21776.7
-234667
-57755.7
-66716.8
-46608.9
-25594
-67463.4
174476
-221202
-258520
-473229
-42038
-395314
-73070
-38661.7
-32638.1
-162597
-38205.7
-14114.9
-17392.1
-25756
-80777
-529631
-31283.4
-84634.2
-16555.8
-20349.4
-19992.9
-541213
-477.56
-29356.1
-49573.1
-226740
-44362.8
-359135
-5240.8
-422071
-126912
-4.14713
-584218
-548937
-403311
-92409.2
-82904.8
-23858.1
-1.14542e+06
-322389
-358094
-59106.2
-26481.4
-359334
-619833
-467685
-586.639
-22403.4
-461653
-32566.7
-49214.7
-181840
-27904.8
-59979.9
-523930
-443772
-111650
-7766.83
-5.04138
-325390
-313724
-286362
-2727.61
-12554.8
-510287
-269221
-337318
-231.952
-817.429
-327.91
-894157
-602035
-120387
-143166
-34340.1
-9826.18
-549458
-43527.9
-33798.2
-213555
-1517.1
-45356.6
-619628
-13091.5
-386120
-565390
-319192
-889819
-23939.6
-182.841
-473043
-361043
-19211
-103973
-416001
-23605.4
8233.67
-231.962
-166893
-376463
-252214
-29.6476
-33305.1
-26762.1
-87153.5
-37583.7
-66.3566
-556898
-151090
-457032
-147483
-622372
-58517
-229304
-810189
-131583
-291125
-50767.1
-475189
-339298
-118970
-14900.2
-499846
-6067.91
8.51358
-29779.4
-599829
-359354
-520421
-79454.1
-630321
-40279.7
-3.9686
-219978
-967577
-5.04169
-275743
-94345.3
-62697.8
-57904.4
-47735.3
-1.00984
2.94345
-4.88856
-3.8621
-3.51965
-540583
-498294
-559354
-597935
-573328
-1288.74
-1093.6
-2543.16
-2656.3
-2383.35
-113021
-102898
-86709.3
-79274.3
-92275.9
-18026
-15337.3
-13672.2
-14527.9
-15156.5
-167378
-200556
-195839
-163439
-175747
-86.8786
-228.506
-163.896
-49.8466
-94.4928
-287455
-315977
-381824
-308349
-330332
-14.5444
-109.964
-5.72099
10.625
-271827
-277557
-298672
-302639
-292545
-61127
-55478.7
-47176.2
-52064
-52763.6
-354.999
-315.78
-464.254
-478.688
-468.346
-512488
-593455
-563032
-129721
-504434
-269116
-339108
-508578
-521824
-92129.4
-106765
-158315
-117946
-123259
-405275
-362926
-420068
-462542
-8555.53
-7310.44
-4634.03
-3968.15
-5106.36
-169675
-140719
-141247
-167570
-160557
-35966.2
-28195.3
-26717.2
-32985.4
-31309.6
-2903.44
-1521.54
-1494.16
-2441.08
-2209.16
-107627
-84170.7
-86801
-117087
-98056.4
-116349
-101319
-81194.8
-99449.2
-40664.5
-68843.5
-53739.7
-29541.9
-48252.9
-860950
-254835
-304274
-535896
-290596
-1317.55
-260.683
-242.986
-418.987
-5313.21
-10250.8
-11353.6
-7474.26
-8171.06
-468911
-425077
-415941
-454617
-431097
-271786
-237219
-258265
-291470
-269113
-29751.6
-36244.2
-39955.9
-35805.7
-399798
-310494
-314997
-396601
-368043
-11035.5
-12692.8
-10718.6
-9969.72
-22582.1
-22169.1
-26970.7
-25674.4
-351622
-325583
-419196
-376493
-225107
-215461
-244701
-231805
-50743.9
-57851.5
-48484.5
-44885.2
-50554.6
-3780.19
-1521.76
-912.552
-2372.01
-2042.93
-120259
-162401
-120711
-140183
-12387.1
-13129.8
-10041.5
-7467.52
-8938.27
-640867
-626738
-1.03533e+06
-754841
-841959
-21132.4
-22775.1
-19521.4
-19975.4
-489275
-292706
-483960
-490183
-513933
-6507.54
-2264.55
-3984.26
-217932
-196863
-172769
-190532
-441467
-470554
-423609
-88115.8
-63626.8
-70844.2
-70160.5
-16162
-16080.7
-13063.3
-14064.6
-449063
-421145
-471557
-465867
-458184
-9859.08
-14133
-11798
-12556.2
-10760.4
-8141.52
-12688.3
-10709.9
-7564.55
-6312.36
-6951.16
-9005.68
-7772.97
-602313
-631928
-566298
-585980
-592353
-10841.9
-14098.5
-43144.4
-39098.5
-30990.8
-33059.6
-38247.7
-26102.4
-18465.2
-22710.7
-320082
-335529
-343271
-329629
-230.251
-320.757
-168.346
-65.4895
-158.7
-5332.18
-9149.25
-5421.26
-7084.07
-376495
-462074
-597169
-348833
-463172
-10214.2
-12637.1
-9776
-266.601
-148.593
-394.121
-250.877
-721.894
-2267.03
-483.835
-1147.25
-93454.2
-283854
-310580
-324421
-284806
-299185
-4507.26
-4835.8
-4627.81
-3327.6
-1715.41
-2559.72
-38770.5
-43801.9
-32596.4
-36655.4
-458133
-477421
-412511
-444328
-811.67
-587.466
-557.028
-577181
-579019
-535971
-525221
-537322
-1109.69
-551.182
-4391.21
-2524.16
-3647.95
-5656.42
-7135.38
-224564
-181629
-185306
-61265.2
-60155.2
-45478.7
-51725.8
-58622.9
-5213.41
-1229.05
-2642.2
-47898.1
-54275.5
-53348.5
-229785
-216138
-244728
-269822
-246477
-7973.34
-8313.25
-4399.51
-127639
-246332
-207301
-202815
-548445
-555033
-479194
-444172
-504550
-217155
-196339
-199193
-213317
-312411
-279708
-302928
-37553.7
-45945.4
-41744.5
-2234.1
-4606.65
-4229.12
-0.829917
-65.5723
-143.309
-76.6979
-78.9674
-125351
-141319
-123313
-117158
-131408
-43.5504
-37.0415
58.1504
-148434
-169688
-4396.29
-3651.54
-5395.79
-108.587
-184.943
-1036.93
-304.322
-27618.9
-24472.2
-24562
-24693.4
-25671
-30114.4
-26146.9
-27747.5
-82393.2
-72477
-67335.3
-76378.9
-73109.2
-23894.1
-24194.5
-24983.9
-554810
-723500
-766487
-709649
-656083
-491482
-370081
-353077
-414298
-24559.8
-23543.3
-35045.1
-33800.5
-32160.3
-35323.7
-26188.3
-23908.3
-31489
-29437.6
-33079.8
-34558.6
-34119
-24920.5
-29976.8
-28095.9
-11863.7
-17189
-12714.7
-14513.9
-22267.8
-24487.2
-185.482
-109.409
-288.585
-300.365
-285636
-308158
-63592.6
-63823.6
-55032.8
-54715.5
-58338.3
-32184.7
-36512
-31196.1
-26676.6
-30457.7
-92024.2
-88164.2
-103068
-109789
-100820
-12376
-9949.56
-27576.6
-23627.1
-23486
-24757.2
-717814
-516703
-569051
-686220
-670975
-62156.9
-78850.9
-78410.4
-130362
-140632
-145167
-299945
-279836
-241991
-258086
-32218
-26347.1
-28118.2
-14.8369
8.92473
-1.30006
-7669.07
-9634.05
-6085.11
-114598
-129526
-8.26678
-6.45813
-1.85412
-2.58422
-491686
-460446
-528688
-725.15
-559.215
-720.656
-2797.6
-2884.52
-4.10766
-10.6023
-12.8041
-250656
-268009
-263639
-95.2461
-388.162
-632.902
-24094.1
-3355.44
5552.19
23441.4
-17142.6
-15595.2
-35928
-25871.1
-90766.1
-113763
-113484
-88221
-98420.7
-19517.3
-22310.8
-267123
-237239
-297993
-38.2715
-90.81
-145.515
-653859
-747085
-433863
-544383
-512043
-280934
-259830
-206656
-45322.5
-43550.1
-35956.9
-36295.2
-39090.4
-8.15922
-2.45042
-10.801
-15755.7
-16745.1
-14715.1
-14101.8
-49273.7
-52897.2
-60297.2
-54033.1
9.34252
-18.6109
9.11462
10.4421
-3.28085
-56.3138
-4.35193
-163718
-129942
-131693
-136552
-96410.6
-104050
-93092.2
-83754.7
-93944.8
-450.052
-346.536
-406.306
-426853
-887577
-520375
-47.9764
-33.0898
-70.001
-85.3363
0.708137
-15884.3
-17703.1
-25188.9
-24422.1
-24744.8
-50.7276
-35.0657
6.73812
-0.149448
-285.116
-214.598
-227.179
-87.7007
-6.32652
-155.989
-82.5862
-89.8726
-51192.8
-52687.8
-60370.3
-57098.4
-64064.7
-64195.3
-12185.6
-18776
-20303.8
-16187.7
-13830.5
-18770.7
-20261
-16120.4
-16915
-44.7516
-225.911
-128.546
-102.727
-21918.2
-24684.5
-5.56412
-4.8378
-5.46929
-552122
-392570
-459713
-108.32
-116.723
-27.2599
-502180
-468951
-551798
-560354
-265763
-268433
-273357
-275066
-121.35
-88.0184
-166.453
-35.24
-402.762
-340.893
-721.166
-11556.1
-9430.08
-12995.7
-38857.3
-41348.6
-36010.2
-37130.9
-1689.64
-2283.07
-279858
-259516
-37694.9
-39072.7
-31850.1
-33598.2
-30359.4
-33817.6
-31921.2
-676.857
-1562.48
-1.0721e+06
-1.221e+06
-887669
-1.16835e+06
-26999.2
-16109.3
-16127.2
-77772.1
-65686
-67989.4
-319850
-289469
-25606.6
-27525.6
-24552.8
-19410.6
-23305.6
-21530.8
-383682
-339029
-361665
-346409
-21835.4
-18702.7
-461.221
-1187.87
-294079
-317100
-276877
-294738
-113215
-119786
-109100
-110712
-513131
-504456
-462042
-481043
-40993.3
-44167.7
-37598.6
-54298.1
-44905.3
-47557.2
-12233.6
-18633.9
-15386
-451269
-473156
-426942
-453627
-10614.3
-130141
-175375
-164004
-164007
-49805.2
-51180.6
-38301.4
-45346.1
-47268.6
-115.807
-1238.25
-1319.89
-230258
-198008
-180247
-179102
-480470
-467754
-505413
-479501
-50618
-50997.3
-50850.9
-52486.4
-27744.5
-24126
-24450.3
-477805
-359059
-234235
-19457.3
-19215.2
-22456
-23931.2
-22611
-40592.6
-38539.5
-30605.1
-36396.4
-719811
-737059
-744553
-984244
-841983
-7734.99
-11650.8
-5764.56
-14236
-16346.8
-13973
-13479.5
-1.53443e+06
-416954
-225187
-36743.4
-1.24981e+06
-1.37589e+06
-81048.9
-78084.6
-84764.6
-13972.1
-19407.5
-2288.1
-914976
-1.05838e+06
-11909
-15559.7
-1968.29
-733211
-888813
-113225
-328478
-57186.1
-56796.7
-48478.2
-48180
-50594.1
-9857.58
-8775.15
-10852.6
-240257
-214139
-232331
-137792
-1.39674e+06
-1.08554e+06
-368769
-320251
-331513
-51240.8
-112932
-84636.1
-16806.4
-14049.3
-903154
-1.00526e+06
-1.0738e+06
-17425.7
-22077.9
-24017.1
-43882
-1.4118e+06
-1.10272e+06
-4985.13
-1839.5
-4353.16
-4067.28
-441368
-464670
-550056
-558119
-566957
-526895
-517574
-567786
-21352.1
-18880.6
-19769.4
-61306.1
-66144.6
-58210.2
-1.24529e+06
-971582
-285.976
-166.301
-77.3808
-100992
-126944
-125010
-119707
-632805
-673913
-830292
-657118
-278961
-280407
-692710
-596457
-618149
-716611
-647366
-214363
-196014
-211172
-170259
-151606
-136954
-151056
-10.1187
-44.7547
11.223
-296138
-435095
-100.541
-816856
-954023
-742751
-16966.6
-12808.2
-13381.9
-619500
-636551
-672959
-685044
-39423.7
-25855.4
-82697.5
-42867.3
-181509
-126993
-25239.8
-32528.7
-302548
-297061
-209172
-43712
-7318.5
-106.583
-32.6102
-16195.5
-63324.6
-71027.7
-64767.6
-39597.3
-39542.1
-53.8873
-32261.4
-36350.5
-1.3972e+06
-870730
-1.11782e+06
-45555.2
-45996.7
-37265.7
-39735.5
-387314
-404170
-414243
-862234
-552962
-657733
-666214
-124437
-120957
-41469.6
-52327.7
-52742.4
-90841.3
-80454.6
-83636.3
-88858.8
-1.00836e+06
-854001
-162137
-1.32035e+06
-1.36732e+06
-24618.7
-43293.6
-41468.2
-4.64384
-4.44994
-0.463277
-195101
-186369
-187143
-25758.4
-30705.5
-30051.4
-5.41169
-5.04511
-231.914
-476.145
-274517
-276686
-417087
-359593
-339947
-399729
-381435
-1.05902e+06
-635480
-743828
-61417.5
-46561.4
-52985.1
-932274
-1.41504e+06
-745056
-616904
-718197
-839638
-806508
-656356
-734084
-659531
-577594
-591043
-578913
-412294
-370986
-388570
-919236
-449320
-557477
-187532
-226627
-209015
-32780.9
-28800.2
-29369.8
-1.53829e+06
-970677
-12012
-9110.62
-713141
-668046
-75257.1
-81310.3
-65594.1
-68889.1
-26685.8
-23114.5
-338451
-378192
-323395
-358906
-18677
-17729.7
-48614.2
-53295.8
-53166.1
-502993
-457070
-269188
-273250
-1174.6
-184422
-163844
-53576.2
-45280.4
-568683
-604523
-617276
-825181
-989733
-5.35295
-5.11917
-87026.3
-78493.8
-222.757
-409.185
-250.575
-23029.6
-24053.9
-71336.3
-82933.5
-73390.8
-174297
-109699
-1.15335e+06
-836050
-275.174
-264.483
-272.542
-47194.1
-41953.6
-43666.2
-18746.2
-18363.1
-986852
-648071
-498905
-617784
-623396
-684605
-30197.6
-4.39485
-5.43968
-194.033
-202.004
-33102.6
-50907.3
-62108.8
-56915.6
-166359
-143493
-50909
-125465
-51734.8
-18897.4
-38426.6
-29674.7
-66562.7
-38325.8
-50980.1
-22720.8
-19883.4
-23834.4
-9885.78
-202842
-196070
-51002.5
-337883
-483407
-142707
-655259
-651383
-264655
-253352
-258945
-170620
-177618
-66122.3
-74750.6
-66435.1
-179.971
-81.7905
-146.749
-931486
-437565
-402493
-388001
-416431
-406026
-444288
-436536
-117663
-87862.7
7.85872
-4.00713
-1.44374
-223950
-200947
-383812
-316179
-330547
-318702
-27790.1
-15364.7
-22582.3
-22707.8
-35683.3
-37019.4
-38894.9
-503035
-461890
-438027
-440223
-457398
-120.664
-59.2324
-295771
-330449
-328263
-420473
-319538
-399543
-503891
-42733.2
-44862.3
-43673.8
-71399.4
-81385.7
-508379
-422886
-66724.3
-119527
-119197
-283667
-305886
-745187
-1.65509e+06
-559881
-809845
-32221.9
-34190.6
-202451
-250590
9.11264
6.42076
-18364.8
-33980.6
-137.039
-745300
-548039
-788991
-44555.5
-27722.3
-24026.3
-25038.6
-107827
-127325
-114915
-96828.1
-105034
-42208.6
-40654.9
-71609.6
-65662.2
-60398.3
-653050
-533863
-569834
-544527
-576739
-583924
-567899
-73002.4
-67065.5
-438073
-394747
-410906
-167.491
-133617
-16338.1
-3283.26
1648.49
-10521
-7475.86
-11514.3
-10147.9
-515343
-552120
-546403
-70531
-65114.4
-261162
-258533
227316
-29373.5
44369.4
-490356
-457669
-59308.2
-62935.1
-38619.3
-29440.4
-32931.1
-632814
-680923
-219868
-407.576
-356.945
-601918
-929537
-22012.6
-908537
-713997
-380836
-411361
-407073
-360602
-364324
-329120
-342572
-166902
-508644
-444588
-432469
-453449
-53557.8
-49428.4
-428733
-459645
-420961
-11941.1
-9929.3
9.43649
-893520
-86212.4
-90022.9
-722987
-473475
-430137
312304
-46709
260364
317372
-77610.4
-82173.6
-137.371
-5831.53
-6283.97
-4382.69
-31282.9
-24102.7
-25933.4
-70876.3
-55896.5
-60187
-301802
-6376.25
-6627.04
-7364.78
-54.5626
-224.055
-833083
-1.38209e+06
-487.303
-563424
-496056
-514788
-637027
-634703
-678994
-699722
-13842.3
-72998
-629092
-600253
-486917
-29325.5
-32957.8
-264467
-71703.3
-79356.4
-497641
-1.13093e+06
-609227
-37736.7
-9309.46
-380145
-449004
-432145
-499183
-426650
-374267
-489236
-550981
-703986
-693221
-737146
-46023.7
-10764.3
-264879
-432352
-384703
-409005
-353073
-330857
-624958
-580964
-573813
-569276
-390938
-431024
-470842
-479921
-323252
-419494
-57788.1
-1.0582e+06
-156307
-59504.7
-371763
-326980
-347322
-461054
-1.15928e+06
-482138
-481485
-619610
-307213
-651297
-13681.6
-12780.7
-55658.4
-41364.9
-46729
-21617.8
-540946
-514891
-578908
-554083
-632474
-789402
-1.08725e+06
-1.14473e+06
-120735
-126833
-457692
-476522
-465103
-482343
-460991
-471869
-17950.2
-14816.5
-16075.9
-558402
-629497
-595784
-598661
-31221.9
-37795.4
-18287.7
-24520.1
-543172
-558660
-53391.4
-49636.6
-45112.3
-375387
-30437.8
-26389.6
-616771
-622541
-643116
-24114.2
-20395.3
-246020
-316146
-424554
-428431
-272443
-259262
-173071
-209487
-114282
-39482.2
-39626.8
-578694
-524386
-484589
-415955
-294624
-25882.8
-30335.2
-31356.7
-27446
-520462
-304470
-459620
-507926
-477692
-371904
-431180
-401778
-735107
-591563
-766680
-277480
-88327.3
-136081
-41011.6
-18248.5
-17713.1
-639932
-590952
-58270.4
-113654
14544.2
33837.9
-243020
-180167
-93490.5
-81202.8
-6296.21
-32485.5
-254116
-250791
-216960
-414343
-298188
-630761
-594841
-4.35605
-4.64065
-3.90051
-4.36025
-4.57077
-581722
-634657
-459085
-695903
-477041
-426422
-34192.6
-181822
-48322.5
-41965.5
-15836.7
-14449.5
-121223
77730.5
-23907.5
-422519
-505430
-598435
-17714.2
-687937
-97032
-28682.4
-50209.2
-17008
-23030.5
-253678
-235074
-445283
-479865
-450229
-283979
-261237
-483698
-53181.8
-77456.9
-70755
-565565
-578439
-4.78918
-526960
-534632
-392018
-366097
-370405
-18832.4
-17933.3
-313947
-367741
-351353
-460030
-467302
-299592
-299222
-388068
-464706
-48578
100575
-340136
-326988
-38651.2
-21518.8
-257974
-248574
-280439
-226288
-523269
-498676
-362808
-372851
-532687
-368899
-609362
-1.00351e+06
-175580
-88743.6
-100622
-78705.2
-296691
-290083
-6169.15
-48299.3
-53918.4
-43961.1
-12964.7
-47801.7
-48565.1
-39044.7
-33882.3
43776.5
-412245
-47481.3
-498413
-370777
-290619
-32482.7
-61007.7
-53997.9
SCALARS xy_pstress float 1
LOOKUP_TABLE default
-0.0464393
-0.207045
-0.390495
0.0527006
0.392632
-0.386451
0.339196
-0.034088
-0.301709
-0.363449
0.390518
-0.378047
0.392697
-0.392412
0.392686
-0.391953
0.356766
-0.363102
0.385245
-0.179392
0.323704
-0.39269
0.239903
-0.335702
0.162842
0.142333
0.214628
0.351569
0.219362
-0.215625
0.155426
0.370753
0.243949
0.36947
0.0957629
0.368357
0.182304
0.363708
0.217126
0.389543
-0.350439
0.297407
-0.325109
0.37354
0.374754
0.382626
0.387517
0.390061
0.391643
0.392638
0.392279
0.389249
0.387663
0.386848
0.386565
0.38664
0.390823
0.387992
0.391787
0.389708
0.390269
0.390829
0.391163
0.391642
0.39189
0.392058
0.39219
0.392287
0.392293
0.392233
0.392699
0.391782
0.39129
0.390479
0.389042
0.386482
0.381615
0.371885
0.3139
-0.388683
-0.392581
-0.343801
-0.169183
-0.0549448
-0.00655804
0.00867012
0.0254566
0.0313873
0.0445798
0.0490008
0.0593848
0.0638582
0.0597953
0.0558729
0.0910425
0.134936
0.142412
0.182307
0.249671
0.311015
0.286752
0.10723
0.0363706
0.195188
-0.0257199
-0.0451683
-0.0605392
-0.0751124
-0.0888174
-0.103607
-0.122631
-0.146512
-0.179316
-0.224941
-0.288041
-0.307906
-0.338468
-0.37195
-0.253324
-0.257787
-0.191514
-0.136142
-0.120916
-0.0618813
-0.270766
0.268226
0.342838
0.35739
0.371253
0.377244
0.391111
0.273825
0.0285498
0.096921
-0.191736
-0.256831
-0.257414
-0.379004
-0.392699
-0.140076
-0.213465
-0.150476
0.18373
0.308785
0.390316
0.287491
0.0903833
0.10201
0.157582
-0.00881301
-0.0489597
-0.216676
0.0773301
0.0358641
0.010916
0.0222768
0.00968013
-0.0113092
-0.0042814
-0.0185001
-0.0223866
-0.0329349
-0.0410271
-0.04933
-0.0626938
-0.0771317
-0.101517
-0.171839
-0.333478
-0.255399
-0.235664
-0.29021
-0.384854
-0.383127
0.342275
-0.234856
-0.387346
-0.299067
-0.164684
-0.122489
-0.183721
-0.255677
-0.387323
-0.392554
0.347756
0.369401
-0.39268
-0.388023
-0.177507
-0.18151
-0.207909
-0.279008
-0.389495
-0.392412
0.348348
0.369461
-0.392239
-0.385871
-0.184745
-0.17402
-0.240799
-0.389444
0.119709
-0.247226
0.378756
0.365146
0.187027
-0.370975
-0.179837
-0.145336
-0.223127
-0.337868
-0.146382
-0.351124
0.367193
0.373148
0.250226
-0.138968
-0.136651
-0.0330538
-0.00489292
-0.00024748
0.00189562
0.00240791
0.00128995
0.000159249
-0.0070406
-0.0104448
-0.0276221
-0.0348387
-0.0744636
-0.0972105
-0.189093
-0.178643
0.291648
-0.0684984
-0.368124
-0.209607
-0.0425036
-0.0191867
0.0200457
0.0328484
0.0795753
0.202396
0.0544533
-0.245715
0.0375218
-0.0165631
0.390981
0.285823
0.131069
0.126346
0.140414
0.228978
6.87192e-05
0.322614
-0.043539
0.0430606
0.391737
0.264814
0.126293
0.0904299
0.0874909
0.287343
0.0297762
-0.300282
0.00438712
0.011637
0.376773
0.354665
0.155465
0.138443
0.143824
0.226584
0.00442962
-0.282112
-0.147879
0.0731003
0.337045
0.392553
0.383149
0.213586
-0.0148515
0.0498859
-0.0791686
-0.265163
-0.145322
0.0920908
0.39039
0.392424
0.160183
0.12453
0.124829
0.196839
0.00376253
-0.211882
-0.16521
0.0398627
0.389738
0.380903
0.192024
0.141794
-0.0905261
-0.051586
-0.0809638
0.231288
0.109703
-0.00287747
0.366645
0.364186
0.2328
0.159247
0.119061
0.188947
0.00058231
0.306351
0.00671247
0.0374055
0.365777
0.361173
0.261573
0.188186
0.156707
0.244869
0.000863461
-0.291104
-0.12161
0.0183471
0.384704
0.334428
0.347413
0.330051
0.122147
0.316777
-0.390286
-0.353458
-0.145159
0.390645
0.361797
0.0923639
-0.0133379
-0.127423
-0.147295
-0.200283
-0.371322
-0.166406
-0.270428
-0.227655
0.271093
-0.0223968
0.160571
0.011142
0.301558
-0.0993664
0.321968
0.348731
0.339501
0.356855
-0.104695
0.391124
0.35931
-0.351941
-0.279392
-0.309598
-0.265001
-0.27782
0.376309
0.306199
0.287507
0.316449
0.30573
-0.0814713
0.211223
-0.32463
-0.254816
-0.155892
0.139489
0.0999455
0.0381928
0.128249
0.281216
0.316972
0.385818
-0.312283
0.385544
-0.0937389
0.375495
-0.222945
0.021566
0.391902
0.387517
0.319055
-0.348897
0.369278
0.374585
0.353111
0.383483
0.0528989
0.366585
0.145821
0.192769
0.392491
0.384745
0.370845
0.391629
0.379423
0.293839
0.335633
0.38852
-0.30374
-0.169972
-0.130167
-0.0654662
-0.0138772
0.0600891
0.080286
-0.147724
-0.0646226
-0.101455
-0.0592789
0.218049
0.210226
0.180566
0.18845
0.251069
0.291681
0.273493
0.241951
0.361716
0.353497
0.382882
0.392646
-0.205329
0.117464
0.27598
0.310089
0.169281
0.217038
0.389672
0.366367
0.310038
-0.270229
0.0380047
0.227798
0.261265
0.306244
0.331877
0.292625
0.0426558
0.167261
0.111808
0.218207
0.257491
0.335075
0.327702
0.311048
0.391661
0.392152
0.390419
0.347483
0.278795
0.259743
0.175496
0.291754
0.238879
0.336504
-0.31688
-0.317878
-0.339029
0.391303
0.0781406
-0.241596
-0.331959
-0.38188
0.387421
0.340773
-0.341233
0.392056
0.381696
0.378774
-0.361985
0.323025
0.34134
0.378671
-0.341531
0.373643
0.218571
0.384946
0.244289
0.331685
0.344165
0.360572
0.304495
-0.229513
0.301074
0.341541
0.341329
0.0748923
-0.222763
-0.325956
-0.251981
0.35672
0.39268
0.379461
0.356941
0.376964
0.371164
0.372966
-0.100753
0.320691
0.385847
-0.025334
-0.234647
0.351236
-0.191674
0.374332
0.373805
0.327163
0.365814
0.36471
0.256217
0.204607
0.200389
0.238351
0.117934
-0.346643
0.324428
0.389218
-0.264883
0.392299
0.347603
0.358417
0.37889
0.35743
0.0370635
0.315307
-0.00537082
0.231777
0.373344
0.37799
0.374421
0.352734
0.343724
0.351249
0.0277471
0.330767
-0.230545
0.286059
0.319508
-0.392699
-0.201472
-0.0403616
0.291287
-0.33337
-0.328283
-0.345688
0.362709
0.0285909
0.385874
0.308726
0.355118
0.360561
0.349116
0.337672
0.328652
0.349207
0.344903
0.356653
-0.234628
0.391669
-0.228647
0.383038
0.385461
0.222083
0.365973
0.377515
0.376253
0.37875
0.391441
0.392338
0.386236
0.19765
-0.141728
0.267304
0.344515
-0.280138
0.178866
0.392413
-0.362478
-0.334516
0.146461
0.0108138
0.084824
0.193087
-0.0815086
-0.0374581
-0.000934981
0.0770539
0.388662
-0.295181
0.247579
0.373469
0.349574
0.292247
0.359542
0.364707
0.377962
0.119678
0.0778666
-0.196261
0.0848405
0.371673
0.363865
0.368552
0.386527
0.392057
0.387893
0.384634
-0.38921
-0.39091
0.152376
-0.344972
0.386851
-0.129746
0.278233
-0.0250779
-0.033336
0.0919009
0.354037
0.365069
-0.0352859
0.271879
0.266012
0.0889229
0.0691727
-0.364791
-0.197827
0.191496
-0.378021
0.324153
0.382181
0.251285
0.391385
-0.242341
0.00465549
0.2612
0.235768
-0.310718
-0.306899
-0.333819
0.336016
0.387146
-0.352631
-0.379916
0.32703
0.0248893
0.315974
0.351066
-0.320628
-0.271725
0.392698
0.389431
0.354642
0.340091
0.00379289
0.045415
0.296143
-0.181752
0.378975
0.305131
-0.222978
-0.301849
0.377956
-0.288175
0.0923866
0.219863
0.356657
-0.270931
0.246401
0.370415
0.266951
0.3919
0.392275
0.391279
0.339938
0.392124
-0.343155
0.336829
0.391842
-0.339635
0.0778356
0.392301
0.217738
0.344724
-0.355672
0.320939
0.0765711
0.375302
-0.14662
-0.10502
0.3815
0.292462
0.392694
0.384605
0.0253671
0.339949
0.384151
0.146573
0.343903
0.386813
0.0185932
0.354289
0.378845
-0.272598
-0.0470076
-0.177569
0.350068
0.367595
0.355879
0.032634
0.234596
0.299333
0.387345
0.38806
0.392658
0.29278
0.313972
0.337064
0.059125
0.392696
-0.362069
0.120707
0.383263
-0.0262773
0.298513
0.157227
0.256301
0.369974
0.133492
0.347302
-0.318521
-0.0669626
-0.0415567
0.383631
0.372277
0.298066
-0.392058
0.382497
0.15465
0.382728
0.37357
0.388057
0.386187
0.32188
0.38721
0.379555
-0.381752
0.303562
-0.386862
0.391525
-0.392697
-0.285796
-0.0664414
-0.0455778
-0.207059
-0.372868
-0.374776
-0.318136
-0.260158
-0.388112
0.39132
0.357738
0.383932
0.387153
0.389309
-0.376444
-0.0751089
0.383508
0.366512
0.240451
0.373142
0.387896
-0.285751
0.384156
0.126997
0.366593
0.18221
-0.212802
0.371262
0.169464
0.386761
0.285296
0.389071
0.162654
0.117145
-0.356856
-0.271835
0.25694
-0.391052
0.386132
-0.330022
0.0534521
-0.191881
-0.255396
-0.342748
-0.206089
0.294282
-0.0330795
0.0630315
0.309383
0.306091
0.233588
0.287913
0.263452
0.386913
0.389311
0.392596
0.389265
0.391389
-0.274397
-0.28759
-0.330618
-0.387049
-0.358836
0.244519
0.267726
0.182051
0.105776
0.191788
0.324946
0.35661
0.379487
0.377125
0.371653
0.359974
0.326122
0.2277
0.202508
0.223128
-0.0456112
-0.101855
0.0122588
-0.0179052
-0.0391787
-0.149218
0.077916
0.377462
-0.390924
0.0536909
0.0102156
0.0152097
0.0914798
0.0485059
-0.101136
-0.0865704
-0.193377
-0.209937
-0.162206
-0.06369
0.317148
0.363208
0.327155
0.347116
-0.0569429
0.370629
0.392586
0.112973
0.388428
0.391487
0.388777
0.382494
0.389712
-0.297832
-0.330909
-0.266909
-0.331638
-0.33005
0.379485
0.367197
0.373275
0.378121
0.386629
0.392258
0.392526
0.378136
0.389488
0.282049
0.255902
0.132251
0.183123
0.193286
0.208828
0.200819
0.131761
0.11063
0.148019
0.34727
0.340335
0.381411
0.376352
0.3743
0.365612
0.343838
0.276155
0.341756
0.311674
0.368481
0.391326
0.372029
0.383249
-0.388158
-0.35481
-0.363381
-0.36555
-0.373145
0.354049
0.270447
-0.0960018
0.331783
0.313857
0.389266
0.362217
0.338008
0.392293
0.312766
0.361998
0.342397
0.281365
0.322647
0.356392
0.370694
0.365232
0.349866
0.359211
0.202217
0.0933089
0.052627
0.146519
0.100272
0.0543487
0.0324329
0.140422
0.0994087
0.218457
0.142126
0.0320062
0.0748677
0.0930219
0.373293
0.387796
0.391586
0.38594
0.125613
0.0463341
0.0452163
0.0788114
0.304292
0.249125
0.295743
0.227432
0.195255
0.120138
0.00788892
0.0795631
-0.0443493
0.0727823
0.0512217
-0.03018
0.0132828
0.354965
0.37501
0.317747
0.290665
0.324944
0.385021
0.390833
0.391879
0.391514
0.312398
0.265422
0.150837
0.241497
0.237082
-0.0976263
-0.351754
0.355968
0.0909888
0.118852
0.168829
0.293421
0.301852
0.244059
0.339435
0.207265
0.348027
0.340617
0.340485
0.359932
0.382711
0.37558
0.385251
0.392609
0.392047
0.389693
0.00122166
0.166919
0.103458
0.392069
0.392629
0.385681
0.392085
0.292865
0.217936
0.11757
0.190292
0.338494
0.358729
0.341183
0.337504
0.340387
0.129941
0.112375
0.213383
0.174222
0.390875
0.392672
0.392685
0.39259
0.377959
0.380677
0.389659
0.385691
0.386916
0.37718
0.368316
0.354722
0.360946
0.361625
-0.392496
0.105371
-0.327643
-0.334946
-0.28302
-0.332557
-0.307861
0.214952
0.0873996
0.140806
0.389192
0.392533
0.392213
0.392637
-0.377552
-0.390753
-0.289673
-0.234154
-0.342913
0.369705
0.374048
0.354565
0.367028
0.368012
0.363648
0.357749
0.361136
0.36998
0.383756
0.374721
0.367058
-0.320384
0.003001
0.220299
0.0227545
0.364628
0.383453
0.353798
0.387885
0.392349
0.385584
0.384484
0.373385
0.386009
0.380397
0.360233
0.386497
0.374575
0.386731
0.379389
0.3853
-0.043132
0.0639353
-0.0270756
0.00662485
0.230265
0.296147
0.335714
0.310458
0.384462
0.392682
0.392532
0.2962
0.307241
0.322547
0.315454
0.322379
0.168346
-0.0445644
0.0964168
0.169171
0.115548
0.389734
0.392661
0.392221
0.392505
0.392602
-0.339918
-0.307736
-0.342553
-0.377859
-0.348796
0.298525
0.224685
0.262504
0.392691
0.386152
0.391958
0.00985861
0.0082308
-0.10983
-0.0819027
-0.0859447
0.0395486
0.261245
0.050351
-0.243715
-0.267576
-0.0822754
-0.253977
0.329849
0.345668
0.315572
0.283862
0.304358
0.280589
0.255683
0.225069
0.228057
0.392685
0.388644
0.388589
0.392696
0.385791
0.391599
0.392363
0.392504
0.392417
-0.130502
-0.161575
-0.329286
-0.277015
-0.25907
-0.0723687
0.0442367
0.108042
-0.0579746
0.016034
0.225286
0.134934
-0.2069
0.381042
0.392636
0.261283
0.336178
0.354576
0.179667
-0.267778
0.392675
0.318258
-0.0760211
-0.0447281
-0.113406
-0.0582354
0.391395
0.390994
0.392079
0.392438
-0.228817
-0.240966
-0.288576
-0.281411
-0.268561
0.392686
0.391048
0.391408
0.261994
0.282381
0.279427
0.319686
0.00254457
-0.0764501
-0.205082
-0.373336
-0.287795
-0.324457
-0.346401
-0.281992
-0.280711
-0.305933
0.126434
-0.0159733
0.310878
0.355374
0.314554
0.391262
0.388448
0.392197
-0.00319645
-0.0152117
0.0111718
0.252556
0.300132
0.303782
0.296152
-0.025759
-0.0365402
0.0455376
0.14918
0.335713
0.311478
-0.00615931
-0.00020397
-0.287988
-0.263544
-0.302846
-0.329366
-0.310796
-0.157598
-0.0969299
-0.0839601
-0.127541
-0.122604
0.018289
-0.125435
-0.0949589
0.057661
-0.0128552
0.386611
0.386931
0.383444
0.391437
0.387062
0.389398
0.337055
0.366746
0.346789
0.339203
0.356717
0.373204
0.346176
0.36941
0.368231
0.339642
0.36409
0.234097
0.27336
0.28351
0.25955
0.266914
0.286367
0.217174
0.380811
-0.298788
0.293137
0.285442
0.352644
0.341113
0.346488
0.366807
-0.351451
0.356783
-0.392675
0.226359
0.338322
0.346202
0.311794
0.238961
0.39093
0.361562
0.303081
0.346708
0.304142
0.385574
0.389446
0.392696
0.392545
0.388799
0.170181
-0.374963
0.39138
0.361629
0.390591
0.246365
0.265743
-0.333551
-0.389975
-0.344555
-0.363984
0.0430694
0.154342
0.221959
0.121247
0.166748
0.0602387
-0.0155003
-0.0755426
-0.0383155
-0.104416
0.0043693
0.223939
0.320767
0.328257
0.308319
0.386153
0.347779
0.370363
-0.181505
-0.0313048
-0.059976
0.364863
0.376988
0.378811
0.361514
0.371373
0.39259
0.229387
0.376047
0.379007
0.388886
0.391684
0.387473
-0.24246
-0.267756
-0.233632
-0.237565
-0.204379
0.0317619
-0.383437
-0.20108
0.131025
0.391074
0.241154
0.328643
0.342546
0.263552
0.306614
-0.273642
-0.185773
-0.206023
-0.281734
-0.253617
0.385274
-0.392696
-0.392676
0.392068
0.345041
0.240615
-0.147567
0.150641
-0.23669
-0.063978
-0.0377674
0.0873172
0.0771115
0.381359
0.391119
0.390164
0.371001
0.246824
0.140384
0.293808
-0.386702
-0.375066
-0.344274
-0.305059
-0.180393
-0.36864
-0.345397
-0.21105
0.383597
0.357181
0.371018
-0.321735
-0.296197
-0.295869
0.319763
0.355836
0.320745
0.298089
0.337888
0.332795
0.354453
0.366057
0.354657
0.185914
0.365169
0.337889
0.295301
-0.116021
-0.140835
0.370361
0.273782
0.351001
0.0906738
-0.091625
-0.0490265
0.343281
0.380783
0.140646
0.323678
0.360847
0.373275
0.375331
-0.0167126
-0.0410507
0.000330431
-0.00511022
0.0906969
-0.360752
-0.377806
-0.285256
0.388833
0.317893
0.127515
0.351821
0.299833
0.318051
-0.247474
-0.217458
-0.258545
-0.279457
0.392565
0.383272
-0.0289799
-0.0244136
0.266096
0.310461
0.321139
0.302087
0.384009
0.384439
0.391284
0.38719
0.384658
0.0344606
0.232545
0.167987
0.165771
-0.306512
-0.347391
-0.243502
-0.186237
-0.212179
-0.256229
0.196644
0.144877
0.377704
0.365449
0.36631
0.371084
0.349225
0.354415
0.382735
0.392426
0.385039
0.390248
0.324277
0.323962
0.390963
0.391681
0.243884
0.305763
0.338438
0.310404
-0.179181
-0.149174
-0.144111
-0.169651
0.275613
0.282409
0.324249
0.313261
0.181861
0.271166
0.2547
0.156515
0.161595
0.0769907
0.367252
0.374139
0.375182
0.324634
0.340126
0.355802
0.343998
0.365332
-0.272533
-0.223068
-0.110728
-0.202456
-0.296536
-0.274356
-0.334551
-0.372734
-0.332365
0.0573815
0.244621
0.360758
-0.116861
0.00581673
-0.25249
-0.208791
0.32864
0.333252
0.275237
0.305682
-0.324413
-0.336123
-0.336431
-0.335108
0.324001
0.328679
0.293227
0.388005
0.350786
0.180112
0.39208
0.389269
0.385833
0.391513
0.390367
-0.321027
-0.272575
-0.384531
-0.35445
0.32811
0.274683
0.259336
0.258005
0.285247
-0.353543
-0.373952
-0.392658
0.392378
0.387815
0.379067
0.387306
-0.0094497
0.382206
0.207215
-0.0746556
0.311276
0.352882
0.0587193
-0.0843032
-0.0204051
-0.359424
-0.376658
0.391785
0.390719
0.365139
-0.357053
-0.378737
0.391764
0.371594
0.38222
0.343673
0.391797
0.230987
0.301853
0.289956
0.187982
0.237794
0.133554
0.239108
0.249107
0.342903
0.337429
0.281566
-0.222095
0.367025
0.374886
0.335371
0.355802
0.314014
-0.338218
-0.283505
-0.313252
0.392359
0.392699
0.0746739
-0.038633
0.0212657
0.19461
0.355686
0.308939
-0.13446
0.380795
0.375725
0.390339
0.138141
0.125257
0.275872
0.322468
0.332486
0.335793
0.347695
0.359617
0.340864
0.358816
0.351318
0.38401
0.386153
0.374209
0.127931
0.238702
0.213901
0.355628
0.221245
0.383537
0.385571
0.335194
0.273627
0.216888
0.309061
0.269784
0.242787
0.231524
0.266829
0.276259
0.00212051
-0.00999963
0.108677
0.199358
0.213139
0.112082
0.162882
0.0317527
0.178592
0.104426
-0.0445435
0.0478321
-0.0698872
-0.0371109
-0.280668
-0.384
-0.379833
0.351691
0.378353
-0.0148283
0.104049
0.265845
0.00152196
0.374696
0.346088
0.365924
0.321135
0.295448
0.317785
0.315816
0.388433
0.302476
0.373537
0.357242
-0.324499
-0.363466
-0.392653
0.272695
0.36685
0.383096
0.338132
-0.389615
0.392566
-0.384405
-0.282266
-0.346371
0.0403435
0.188907
0.119027
-0.113876
-0.0776151
0.187032
0.377582
0.379851
0.296303
0.221841
0.143949
0.315293
0.346444
0.350813
0.338734
0.376344
0.368315
0.35989
0.337115
0.0981442
0.306555
0.317659
-0.324643
-0.329383
-0.310606
-0.345486
-0.336836
0.22657
0.19731
0.0698504
0.13078
0.29833
0.280992
-0.258193
0.356055
0.377875
-0.333132
-0.333498
-0.311355
-0.233108
-0.379116
-0.392318
0.25838
0.204739
0.190922
0.377602
0.371733
0.383189
-0.391453
-0.278605
0.137257
0.318769
0.00948836
0.00855725
0.375408
0.379202
0.386541
0.379376
0.381767
0.316174
0.353302
0.340797
0.00343116
-0.102849
-0.0700645
0.288043
0.341795
0.362002
0.384979
0.0906045
-0.0696529
0.0303993
0.168717
0.0661136
0.209034
0.188262
0.160704
0.201076
0.356049
0.371795
0.343559
0.300801
0.381157
0.360189
0.0287772
-0.0827514
0.0409162
0.349733
0.350627
0.324136
0.271408
0.0901023
0.318621
0.264817
0.170049
0.253839
0.215419
0.306508
0.304301
0.280771
0.344706
0.344247
0.379292
0.386739
0.383253
0.381669
0.391614
0.388825
-0.293601
-0.282611
-0.265429
0.337048
0.370586
0.0179328
0.004617
0.161528
0.264883
0.325869
0.325678
0.308731
0.237697
0.19613
0.190756
0.377044
0.331073
0.136917
0.373445
0.227173
0.194951
0.388369
0.377647
0.337841
0.392107
0.391937
0.330788
0.339789
-0.342966
-0.339395
-0.348354
0.35988
0.262511
-0.392437
-0.387467
-0.38561
-0.28282
-0.33742
-0.330285
0.392376
0.392267
0.37248
0.392475
0.392677
0.392243
0.290566
0.14527
-0.0423712
-0.0584695
0.176779
-0.391029
-0.376955
-0.313059
-0.336944
-0.355619
-0.340091
0.153492
0.0587204
-0.377322
-0.311505
-0.387245
-0.32539
-0.271365
-0.294377
-0.344942
-0.316865
-0.354429
0.38038
0.388666
0.391395
0.130031
0.318315
0.256798
0.391629
0.320282
0.340069
0.382055
0.284858
0.32645
0.0155074
-0.041334
-0.0110315
0.0681502
0.171548
-0.0237411
0.0219168
0.0203172
-0.391684
-0.371626
-0.391635
0.35972
0.356979
0.375279
0.381233
0.364093
0.370228
0.355569
0.357876
0.343864
0.233521
-0.385986
-0.353574
-0.391977
0.364333
0.353065
0.380384
0.387873
0.390209
0.390414
-0.19789
-0.142972
-0.237087
-0.17554
-0.161223
-0.197796
-0.148388
0.369058
0.367364
0.372768
0.376255
0.375605
0.391392
0.373935
0.390119
0.384859
0.392348
0.314379
0.132331
-0.222801
0.0593487
-0.182448
-0.234258
-0.219177
-0.0381009
0.0700612
0.316084
0.293563
0.388798
-0.224267
-0.2702
-0.20844
-0.149838
0.271086
0.213667
0.278252
0.059378
0.361077
0.350175
-0.319814
-0.260287
-0.365347
-0.39166
-0.350658
-0.332393
-0.120083
0.0809655
-0.144967
0.0408175
0.181713
0.36411
0.382279
0.376991
-0.244971
-0.155
-0.195677
-0.168076
-0.126381
-0.339754
-0.327606
-0.341742
-0.330841
-0.345714
0.0789262
0.176576
0.173254
0.225394
0.196615
0.160663
0.186268
-0.0702653
-0.0448869
0.34192
0.373041
0.3643
0.254772
-0.0853046
-0.392614
0.392155
0.375364
-0.388789
0.164675
0.13721
0.145901
0.272704
0.230349
0.221077
-0.321179
-0.306483
0.39238
0.382427
0.362692
0.358553
0.372621
0.30438
0.332636
0.347799
0.303761
-0.223448
-0.283142
-0.273613
0.306421
0.38965
0.130624
0.384239
0.381052
0.317189
0.286514
0.384494
-0.109179
0.04018
0.378938
0.3684
0.368768
0.388198
0.386427
0.392062
0.391202
0.272918
0.331734
0.355635
0.36115
0.354966
-0.301982
-0.299986
0.286984
0.303223
0.313341
0.385723
0.379405
-0.392676
-0.0835864
-0.157458
-0.180601
0.0550159
0.078351
-0.0461396
0.376034
0.367789
0.376772
0.389167
-0.111221
-0.13316
0.386475
0.220139
0.145263
0.0804066
-0.249565
-0.260528
-0.283569
-0.14892
-0.269821
-0.240096
0.238051
-0.00809033
0.226462
0.150317
-0.360758
-0.390733
0.37197
0.359418
0.382876
0.311588
0.337503
0.329401
0.198187
0.179485
0.162018
0.176778
0.0922618
-0.0902176
0.289328
0.290193
0.0224422
-0.207531
-0.178406
0.0219421
-0.342088
-0.293519
0.3913
0.382373
0.303234
-0.352802
-0.226636
0.375248
0.36426
0.371282
0.392522
0.387756
0.386519
0.34343
0.345981
0.29929
0.240932
0.272113
-0.355076
-0.20051
-0.0647985
0.361207
0.380899
0.369387
0.386363
0.3909
0.285739
0.319932
0.306212
0.309005
0.379295
0.361668
0.339306
0.363246
-0.161827
0.150087
-0.363084
0.360159
-0.378982
0.167484
0.382033
0.379472
0.381926
0.378954
0.345419
0.34684
0.345147
0.287323
0.380053
0.378847
0.092977
0.116434
-0.296127
-0.264025
-0.249852
-0.380488
0.242628
0.267409
0.335163
0.321228
0.351304
0.304325
0.27182
0.332234
0.141586
0.208236
0.366314
0.331732
0.351912
0.339296
0.324541
0.334251
0.0545825
0.0682123
0.186286
0.242246
0.179362
0.183406
0.182611
-0.233904
-0.200126
0.363349
0.375951
0.278712
0.233683
0.355172
0.371857
0.364381
0.383
-0.366191
-0.346319
0.296637
0.29748
0.302815
-0.364458
-0.345324
0.392054
0.378613
0.380736
0.383445
0.385285
0.387197
0.365281
0.38374
0.136605
-0.309048
-0.261044
0.307848
0.329129
0.311519
0.302477
0.313383
-0.242067
-0.240194
0.363123
0.361483
0.332862
0.384063
0.342016
0.351238
0.3464
0.38221
0.372205
0.377539
0.227194
0.0963497
0.0951293
0.0633245
0.181399
0.1661
-0.322999
0.379331
0.38791
0.196074
0.192348
0.391914
0.378127
0.392558
0.351328
-0.118027
-0.332197
0.383545
0.0784598
0.248883
0.363536
0.351224
0.38909
0.385026
0.379789
0.374024
0.251324
0.292876
-0.327856
-0.359819
-0.139423
-0.362804
-0.335801
0.24651
0.200922
0.383455
0.125913
0.36435
0.373448
-0.345568
0.000528114
-0.327265
-0.350246
0.0412102
0.0679239
0.370914
0.373732
0.350028
0.35099
0.336494
0.324248
0.362558
0.226631
0.381608
0.373851
0.391464
-0.239057
-0.231837
0.125687
-0.0458635
0.340952
0.311747
0.319951
0.36094
0.344244
0.337069
0.355029
-0.341933
-0.344754
0.104173
0.245399
-0.365251
0.262771
0.268612
0.379798
0.386441
0.386739
0.0279076
0.0346821
0.385558
0.374469
0.377491
0.355039
0.342916
0.387147
0.364688
0.380121
0.367858
0.382642
0.371153
0.365937
0.366079
0.0190515
-0.0174534
0.388564
0.392698
0.389485
0.391065
0.358006
0.361443
0.386237
0.379585
0.360828
0.38569
0.123873
0.323865
-0.323403
-0.328862
-0.276834
-0.353962
0.385583
0.389309
-0.281918
0.237965
0.341871
-0.340015
-0.204237
0.107562
0.356116
-0.354447
0.329615
0.161229
0.275952
-0.319921
0.194124
0.373089
0.383787
0.344557
-0.0734972
-0.200109
SCALARS x_pXYvec float 1
LOOKUP_TABLE default
15.9284
32.7109
32.7609
31.2646
30.9814
30.0287
30.1356
30.3151
24.7619
24.7333
24.2172
24.1974
23.8105
23.8094
23.4105
23.4088
23.0107
23.0043
22.5132
22.5134
20.3245
20.3189
19.8126
19.8108
19.4105
19.4163
19.0102
19.0059
18.6104
18.608
18.2107
18.2016
17.713
17.7129
17.408
17.4117
16.9132
16.8874
16.5104
16.4947
16.1103
16.0981
15.8088
16.3499
16.5932
17.0184
17.5389
17.924
18.3453
19.0206
19.2669
19.9464
20.3794
20.8143
21.2474
21.4935
22.0293
22.595
22.9689
23.527
23.9621
24.4013
24.6549
25.2828
25.7246
26.1669
26.6092
27.0513
27.4928
27.9313
28.322
28.905
29.3447
29.787
30.2288
30.6691
31.1086
31.5448
32.0456
32.4674
32.7365
32.7512
32.754
32.7528
32.7669
32.7738
32.7734
32.772
32.771
32.7707
32.773
32.7753
32.7785
32.7804
32.7723
32.7682
32.7654
32.7648
32.7659
32.7665
32.7684
32.7694
32.7695
32.7695
32.7686
32.7678
32.7675
32.7673
32.7677
32.768
32.7682
32.7683
32.768
32.7675
32.7661
32.7653
32.7622
32.6539
32.3907
32.2843
32.1001
31.9173
31.7349
31.4412
31.2231
31.1883
31.1522
31.1156
31.0771
31.0393
31.0026
30.8556
30.7313
30.6624
30.4647
30.3445
30.2751
30.1001
30.0351
30.0513
30.059
30.0723
30.0961
30.1121
30.1224
30.149
30.1821
30.1954
30.2505
30.2566
30.2802
30.3023
30.0603
29.6178
29.3179
28.9595
28.6494
28.4704
28.0281
27.8486
27.4071
27.228
26.7883
26.6099
26.1721
25.8656
25.5627
25.224
24.931
24.7514
24.5892
24.5082
24.4269
24.38
24.2642
24.2152
24.2134
24.2126
24.1333
24.106
24.037
23.9881
23.9384
23.9098
23.8391
23.8103
23.8098
23.8096
23.7365
23.6876
23.6378
23.588
23.5383
23.5096
23.4391
23.4102
23.4095
23.4093
23.3349
23.2875
23.2391
23.1904
23.1406
23.1118
23.0399
23.0111
23.0117
23.0132
22.918
22.8836
22.7973
22.7362
22.6739
22.638
22.5492
22.5131
22.513
22.513
22.4057
22.2543
22.1009
21.9813
21.8583
21.7873
21.6114
21.54
21.3644
21.2931
21.119
21.0484
20.8766
20.807
20.6408
20.5365
20.3913
20.318
20.3137
20.3156
20.2221
20.1869
20.0984
20.0624
19.9764
19.9231
19.847
19.8096
19.8079
19.8089
19.7669
19.717
19.6366
19.5882
19.5387
19.5101
19.4393
19.4104
19.4103
19.4105
19.3644
19.312
19.2623
19.2134
19.1659
19.105
19.0381
19.0085
19.0075
19.0091
18.9366
18.9085
18.8376
18.7876
18.7379
18.7092
18.6389
18.6098
18.6091
18.6087
18.5639
18.4949
18.468
18.4093
18.3392
18.3111
18.2398
18.2111
18.2118
18.2129
18.1199
18.0847
17.9962
17.9339
17.8721
17.8364
17.7486
17.7122
17.7115
17.7112
17.6547
17.6175
17.5789
17.5567
17.5042
17.4831
17.4297
17.4081
17.4083
17.4148
17.3223
17.2868
17.1962
17.1328
17.0723
17.0374
16.9491
16.9131
16.9189
16.9168
16.8377
16.8091
16.7375
16.6873
16.6377
16.6091
16.5389
16.5097
16.509
16.5087
16.4658
16.4157
16.367
16.3012
16.235
16.2074
16.1384
16.1095
16.1081
16.1103
16.072
16.0103
15.9776
15.9427
15.9084
15.8898
15.8327
15.8128
15.8151
15.8301
32.4786
21.2147
29.661
21.9476
18.5499
20.2564
17.7023
18.154
18.2604
18.1785
25.8464
32.5421
17.3876
23.7661
23.8954
23.8111
23.9776
23.8582
16.8724
18.9686
19.1243
18.9959
19.2089
31.5088
19.7551
22.9319
23.1535
23.0948
32.5522
28.256
20.4385
20.3339
30.2751
30.103
25.6154
24.6039
27.0137
22.3268
16.3875
32.4608
27.0293
30.403
28.7308
32.5169
23.3249
30.7012
30.3749
29.9454
23.456
32.5784
30.5141
19.8775
19.7812
21.5131
30.1051
29.5891
30.8209
30.4453
18.3923
30.8619
31.4636
24.2476
23.92
24.1537
24.1534
24.4145
24.2177
24.5295
23.2253
24.4858
23.3139
23.1924
24.4624
24.9418
19.8957
19.8461
20.0441
20.0301
19.3198
19.462
17.8415
17.7801
31.4505
30.4222
23.6923
25.1834
25.4567
17.5473
25.7733
26.1623
17.0992
17.0194
31.0061
24.8039
30.6343
24.1911
19.6714
18.6147
19.0617
18.6116
22.9393
23.0319
22.7385
22.8488
22.5158
22.6103
23.0576
22.3319
30.5272
31.1134
31.4505
31.4666
24.2053
19.417
26.3676
26.6293
26.9086
27.2873
23.6685
23.4589
23.385
31.8459
31.3243
24.7298
22.6243
32.1928
19.7998
19.1676
23.8978
16.6649
31.6837
31.5703
24.2939
29.2047
28.9054
29.3338
23.2416
22.3873
30.8731
16.9472
19.5349
19.3248
19.125
19.4781
27.5841
20.6941
20.1732
20.0486
20.3159
19.9891
24.9614
24.206
24.3536
28.6162
16.7656
19.285
18.9333
31.884
18.0358
17.9963
22.6331
25.9173
31.7605
31.3677
31.5881
30.985
23.4615
20.2201
20.4631
20.8292
18.7682
21.0005
21.3061
20.7921
21.3142
22.0151
23.4187
23.4917
19.5787
31.8489
32.1977
32.1403
31.9535
31.7498
31.3854
31.6913
19.5209
21.7356
25.4386
20.4444
17.5497
19.0523
18.7202
18.389
18.3813
21.3708
30.9355
19.7148
15.9432
28.7769
18.7528
30.3042
24.8817
19.9086
19.4704
20.4902
23.1978
24.1309
17.9049
32.3873
24.8325
19.2781
26.891
27.8551
24.8142
18.903
18.778
18.6147
18.3603
17.1034
23.2645
22.7266
24.3119
29.1464
29.7892
29.1488
17.8671
18.0681
17.7705
32.0561
31.9033
31.2351
26.4121
27.302
25.1952
23.6374
24.0573
24.5169
22.4271
29.6119
23.1599
24.4521
20.6273
21.099
21.3816
21.5736
25.0308
26.2783
26.1204
26.667
27.8132
23.5155
30.6759
32.3095
32.1117
32.329
32.1598
18.3671
18.2663
20.052
20.1581
20.6112
23.7965
17.7028
17.5564
17.5339
17.2499
31.8669
17.2759
17.2768
31.8697
32.2233
30.4554
30.6056
17.1445
20.8961
29.6404
32.5278
31.4511
30.6675
30.6485
30.484
22.1753
20.5014
27.8807
17.7912
27.6376
32.4671
32.456
30.797
32.4644
30.9587
31.016
20.2313
16.7979
24.9815
21.4798
19.6504
19.2344
22.7316
22.8494
23.672
18.8931
30.4378
31.9165
31.9918
19.1158
21.7394
28.4564
21.9801
23.5771
23.7008
16.4539
16.2467
16.2239
16.5341
22.4247
21.9472
18.5249
24.6772
19.623
25.2629
24.581
24.0717
22.9538
23.2731
32.563
32.2457
31.6783
23.4786
19.7956
16.5823
24.6413
30.9158
30.596
30.3218
17.666
30.7648
23.9753
26.3621
22.1765
23.5937
18.6836
31.6153
19.6015
23.6289
30.3983
17.6408
19.6059
19.8054
23.6649
23.9192
31.1487
17.4845
20.4818
18.7235
24.8043
28.1569
20.4537
19.5917
18.9526
32.5414
32.4004
17.8686
28.0841
24.1593
22.8563
25.2877
25.5964
18.0587
19.5803
23.5605
32.5381
30.7885
18.0142
21.0847
21.1123
32.5023
32.165
18.9354
21.708
18.2998
32.1998
30.4674
30.6999
20.1768
19.3442
23.7283
23.3036
27.6139
29.3198
18.4485
23.9649
25.7249
22.6477
32.2653
26.748
19.2018
24.3134
20.0258
19.7018
17.5695
17.0315
29.6566
30.6529
18.6093
19.3832
31.2527
20.4421
18.741
23.1209
16.1837
32.2274
22.7255
20.7981
22.271
30.924
23.5001
23.9023
23.2969
24.3614
32.506
18.6962
16.5165
19.0764
17.797
16.5949
22.6361
22.498
19.5069
16.6304
21.5263
26.345
19.879
19.5147
23.9544
28.7335
18.1367
32.5981
30.7107
28.3278
19.6729
19.181
20.2423
16.2884
20.0105
25.9668
30.4614
20.5734
19.9528
30.269
21.5782
23.1977
15.9919
15.9446
15.9229
30.5178
30.7013
30.7763
30.5853
30.6515
19.5523
19.7516
19.6722
19.4901
19.6051
32.2408
32.0402
31.8263
32.058
32.0138
23.072
23.181
23.1838
23.0853
23.1187
28.4873
28.9352
28.9795
28.5588
28.6942
22.9384
22.4983
22.6
23.012
22.7942
30.6508
30.8693
31.0135
30.7924
30.8594
21.0904
20.8602
20.8839
21.1578
21.005
30.9282
31.0998
31.1096
31.1371
21.7195
21.615
21.379
21.4731
21.5081
24.3176
24.6225
24.5273
24.2515
24.4063
31.4192
31.1432
30.9963
31.2677
31.1745
19.0787
19.0909
19.0431
19.0339
17.2047
17.0779
17.1544
17.2828
17.1993
22.8033
22.7332
22.8253
22.8863
22.827
17.3646
17.4517
17.3308
17.3274
30.9871
31.3454
31.5444
31.1871
31.2696
22.9813
23.3346
23.2277
22.9649
23.1089
26.6361
27.2223
27.0726
26.5447
26.8222
32.339
32.5277
32.3745
32.2108
32.3325
24.3537
24.8024
24.4817
24.0697
24.3689
24.0094
24.4521
24.8247
24.4724
23.1115
23.2117
23.2387
23.1697
23.1843
19.5524
19.4891
19.558
19.598
19.5549
32.3448
32.5367
32.3699
32.3826
32.3188
31.9434
32.0559
32.3837
32.2107
18.381
18.499
18.7008
18.5493
18.5601
21.7557
22.0263
21.8596
21.6028
21.7843
26.5077
26.0161
26.1135
26.2299
21.0237
21.3445
21.2478
20.9505
21.114
30.4943
30.6135
30.9874
30.8768
27.4996
27.3327
26.7847
27.0778
21.1282
21.3091
20.8185
21.0267
22.1808
22.3645
22.1514
22.1201
24.9415
24.9901
25.4267
25.3199
25.2209
31.1143
31.4566
31.2747
30.9537
31.1652
23.772
23.1638
24.003
23.6015
32.19
32.3256
32.5647
32.4616
32.4274
19.9492
19.8622
19.8132
19.9483
19.8867
27.9764
28.1689
28.6154
28.3947
18.3895
18.2845
18.2389
18.3181
18.2961
30.7965
31.4553
31.1979
22.2805
22.5197
22.793
22.5893
20.7164
20.6876
20.7908
24.6648
25.6917
25.2229
25.2521
32.1508
32.3391
32.5558
32.3965
18.8152
19.0106
19.0157
18.8786
18.949
29.2557
28.8163
29.2116
29.0518
31.3216
31.3136
31.0063
31.0838
31.8192
31.8504
31.6013
31.5984
31.6515
17.9578
18.0467
17.9995
17.8916
17.9547
23.067
23.0491
24.0696
24.0992
24.0352
23.9715
24.0206
27.4691
27.9476
27.6742
20.4098
20.181
19.5971
19.9146
32.3779
32.1414
32.2953
32.5299
32.3706
32.0179
31.846
32.1389
31.9684
17.61
17.705
17.6089
17.5243
17.5944
31.628
31.6819
31.8399
31.7248
31.4484
31.5683
31.5232
31.5782
31.5667
31.8478
31.6539
24.4336
17.1929
17.1304
16.9974
16.9706
17.0526
32.1584
31.8687
31.99
31.9592
32.2934
32.1776
25.5344
25.6259
25.9757
25.8751
20.6857
20.4062
20.6855
20.6864
31.014
31.4609
31.2702
19.4242
19.2405
19.2516
19.456
19.3469
30.6152
30.4116
30.2595
30.6107
30.4478
31.7074
31.4156
22.1226
22.8153
22.5473
23.4254
23.4914
23.5153
23.4503
23.477
30.5722
30.9067
30.7363
26.5484
26.0157
26.0859
22.3383
22.4477
22.4213
22.3064
22.3649
29.6336
29.9506
30.0758
20.55
20.6294
20.7858
20.6775
18.4748
18.4853
18.6186
18.5799
18.5588
22.1714
22.4654
22.487
22.3521
20.668
21.205
20.8109
27.4016
26.6323
26.9216
31.6686
31.7207
31.6548
31.5523
31.5378
31.7429
31.8308
31.7143
23.2369
23.2298
23.4706
23.4768
23.3978
31.2632
31.3918
31.4697
23.1972
22.8986
32.5108
32.3316
32.2466
32.5262
32.3614
32.1354
32.2965
26.0045
26.5484
25.8037
26.1239
29.2408
28.5337
29.4242
29.0054
23.5582
23.6981
23.626
23.4921
23.5816
30.0096
30.3163
29.8525
19.6458
19.6686
19.6303
19.6332
20.3926
20.576
20.5742
20.4084
20.4695
24.542
24.4139
24.4552
24.5409
24.4833
32.2622
32.4187
31.9793
31.7583
32.0296
28.0797
27.6069
27.732
26.7345
26.1782
26.5006
29.389
28.9335
29.5172
29.1949
27.1553
26.7233
31.3518
31.1731
30.9659
31.1321
21.347
21.2388
23.6681
23.7855
23.8283
23.747
23.7627
25.2291
25.3718
25.7694
25.6285
25.5661
23.8904
23.7895
23.5794
23.6469
23.6907
31.3808
31.5358
28.8732
29.7113
29.4698
29.3574
18.8449
18.7583
18.8339
18.8961
18.8359
25.5808
25.0161
25.0411
23.5465
23.386
23.2949
21.5436
21.5921
21.8797
21.7394
27.186
27.7324
27.3876
31.0433
30.8987
31.0227
30.2121
30.3713
30.6138
23.9005
23.7159
30.1902
30.2061
30.3555
30.2429
19.4258
19.6472
19.5173
30.6883
30.8567
30.9197
32.5076
32.3363
30.2183
30.4263
30.2753
21.7708
21.3664
21.4175
31.1718
31.8512
31.5745
16.1596
16.2156
16.1466
16.1385
24.4139
24.3063
24.3194
24.3503
24.044
23.7532
23.9111
24.2069
24.0165
27.7148
27.333
22.3003
22.5037
22.4114
32.6157
32.6863
32.6217
18.426
18.3543
18.309
18.4162
18.3656
20.7908
21.0191
20.8527
26.7912
26.8453
27.4352
27.3332
27.1776
30.9468
30.8249
30.947
30.1474
30.3187
30.6721
30.5262
24.256
24.041
24.0537
24.1283
30.6949
30.7935
30.7856
30.8392
30.2553
30.4304
30.229
23.1048
23.6592
23.5152
23.4525
23.2867
23.3638
23.4775
23.4296
23.4029
31.9509
32.0491
32.0355
17.2799
17.1142
17.1876
32.6126
32.6145
32.6164
32.4578
32.6138
28.3345
28.0252
31.1183
30.6208
30.5513
30.5657
30.7128
30.5899
30.5732
31.9436
31.9643
31.7869
32.6182
32.6171
32.0526
32.1496
31.9588
26.3875
25.9907
25.8148
23.635
23.5325
23.6286
32.0531
31.7127
31.9285
32.0272
29.6647
29.0545
29.1895
29.7336
29.4554
30.3983
30.495
30.3788
30.3727
25.2915
25.6513
30.9081
30.7445
30.8399
20.5145
20.7421
20.6274
30.36
30.4426
30.2657
17.8469
17.8802
18.0108
17.945
22.0901
22.2042
21.9625
22.0827
31.4277
32.6139
32.4654
32.6174
30.6354
30.4668
30.624
30.0316
29.9337
29.6825
24.3564
24.4437
24.5455
24.4633
31.86
31.5723
21.2434
21.0896
26.7688
26.8991
27.4354
27.1585
28.4045
27.9464
28.1744
32.5417
32.3637
20.0603
19.9339
19.989
19.9864
24.6381
24.4726
24.5622
23.7557
23.8982
23.7914
21.4092
21.5083
31.3425
31.524
28.9124
29.5148
28.7606
29.1092
19.9431
20.5039
20.339
20.2667
28.6207
28.8938
32.0232
32.0346
21.4457
21.2777
21.5594
21.472
23.2317
23.2577
23.4194
23.3426
20.3133
20.1863
20.2346
20.2827
26.2924
26.3652
26.6143
25.3991
25.8441
25.561
30.2177
29.7411
29.9959
18.7162
18.5854
18.8043
18.7143
30.3249
23.0098
22.7809
22.9564
22.8917
23.8493
23.9392
23.9224
23.8538
23.8884
32.686
32.6752
32.6156
22.6384
22.755
22.695
22.7406
19.8038
20.0421
19.916
19.9019
23.6707
23.7877
23.7311
23.7362
27.8699
28.3067
28.0827
17.4864
17.4817
17.4551
30.3875
30.1369
29.7407
29.9922
30.0181
24.2292
24.3015
24.2636
24.2884
19.23
19.3088
19.2752
19.2055
19.2438
24.25
24.3595
24.2874
31.0347
31.1511
31.4769
31.3162
19.4451
19.4589
19.4393
18.244
18.3138
18.2634
24.2154
24.0677
24.0572
23.4356
23.5049
23.4381
19.0869
19.0487
23.8365
23.9059
23.8384
17.0771
16.9738
17.0084
17.036
25.4911
25.6809
26.0716
25.9157
25.8846
29.4447
29.7182
29.4404
21.8906
22.2006
22.0937
18.6341
18.7029
18.6562
20.8508
21.2352
21.1564
22.7333
22.8619
22.8105
30.6366
30.925
20.089
20.1805
20.0961
32.2867
31.6812
31.9607
16.5337
16.6021
16.5557
31.8146
32.6687
32.6811
32.6041
18.7426
18.8277
18.9198
18.8413
18.1262
18.1858
18.1083
18.1145
29.6225
29.9959
29.6707
25.1146
25.1524
25.3673
17.0336
16.9487
30.5413
30.5133
30.4298
24.2001
23.6831
23.8506
23.8821
19.7136
19.7472
19.663
19.6864
21.5018
21.3724
19.9969
20.0995
20.2154
20.1089
20.1195
22.5173
22.596
22.4354
22.8867
23.1204
23.1567
23.0587
32.4051
32.6009
32.6589
17.3964
17.3372
32.6862
20.0416
19.9366
19.9638
31.5188
31.8937
31.6877
18.9619
18.9928
18.9325
18.9399
16.2748
16.1146
16.2475
16.1921
22.5892
22.6367
22.5747
22.5487
16.9802
17.0802
17.0013
22.6368
22.549
32.2827
32.3039
24.4312
24.7291
24.8236
24.8595
25.1158
25.321
30.7928
27.912
27.6223
19.1279
19.2267
19.1804
26.4907
26.6286
27.1414
26.8713
18.8885
18.9902
18.8282
19.1486
19.1363
19.2412
19.2093
22.9584
22.9071
23.6792
23.7803
23.7406
24.3631
24.5517
24.3318
24.3151
19.5821
19.6401
17.7428
17.8279
17.77
23.5811
23.6224
23.6508
30.116
30.269
30.1042
22.6138
22.815
22.6307
28.8319
28.2386
28.4907
30.2913
30.1249
32.1984
31.9499
21.7629
21.6328
17.9291
17.8546
18.1648
18.1938
18.0839
18.7788
18.8987
18.85
24.7129
24.9209
24.8355
17.5141
17.4474
17.5476
17.4951
20.3123
20.2272
20.1548
20.2747
20.2235
19.5523
19.7179
19.6432
19.6542
20.3848
20.6752
20.7118
17.9204
18.0682
18.008
22.7119
22.5528
22.5286
27.5693
28.0062
27.7831
17.484
17.4301
32.0815
29.899
19.8236
19.7843
24.8637
24.9289
25.3339
25.1175
28.325
28.5945
17.6051
17.2449
17.3839
17.3825
30.397
30.2522
24.079
23.9255
24.0037
18.1715
18.122
21.8714
21.8894
32.6728
22.7353
22.9859
26.0801
26.3373
20.2922
20.3993
20.2935
17.8738
17.8866
30.7522
30.8889
24.5279
24.7599
30.6449
30.8042
30.8711
30.4515
29.9371
25.4028
24.9842
22.6966
22.6614
22.6724
19.5081
19.439
32.2259
32.1037
32.0244
24.1814
24.1785
24.105
30.7131
30.4787
16.6774
16.7174
16.802
16.7506
19.3186
19.267
26.0286
30.5878
30.6925
32.2124
32.0713
23.2784
23.2891
23.3619
23.328
23.0056
23.1597
20.3511
20.4767
20.4034
23.9817
24.0843
24.0434
23.2844
23.2521
23.2678
31.1765
30.9303
30.6637
29.3983
22.4338
22.5642
18.5099
18.5737
18.6251
18.5732
18.9822
18.9415
21.9475
22.236
22.1126
22.8658
22.9358
24.4406
24.4599
24.6526
32.3141
32.5182
32.3648
17.0847
19.8559
19.8861
20.1695
20.1599
20.0658
19.6434
19.7795
23.9194
24.4065
30.5506
30.4038
30.4149
22.178
22.3893
18.4426
18.1354
18.6667
18.3846
25.112
25.1353
24.9545
25.1175
25.1006
24.7862
24.9411
18.0853
17.8964
17.9122
18.1027
18.0104
30.5165
30.5689
21.0948
20.8046
20.6782
18.6721
18.7046
18.646
18.6656
24.642
24.325
24.4494
24.3403
24.3157
18.4615
18.534
18.4883
23.1077
23.0493
20.6637
20.758
19.3614
19.431
19.375
20.0831
27.7668
27.4829
20.543
20.5993
30.6441
30.7547
23.1951
23.2548
32.3628
19.5038
19.5216
19.4565
25.9881
28.4732
29.215
28.9074
23.2239
23.1425
23.1863
23.5605
23.478
24.1552
24.119
23.363
23.4349
23.4081
20.4002
20.5604
20.4531
19.84
19.8075
19.6912
19.7358
24.1535
24.358
20.1464
20.309
20.2524
30.4032
23.2024
23.1176
23.0413
16.1924
16.1354
32.6584
32.6322
32.6407
20.0377
19.9593
19.8974
23.4471
23.4967
16.7215
16.6868
16.5939
16.5458
16.6087
20.1208
20.1251
25.7139
25.5791
24.6259
24.6629
24.605
19.8898
19.8454
19.8331
30.741
30.557
18.3985
18.3563
29.5666
20.2662
20.3632
19.1375
19.2756
19.1332
19.552
19.3092
19.1841
19.3777
18.248
19.2678
19.2878
19.5155
19.3955
23.8419
23.8268
18.6128
18.678
18.7041
16.2666
16.2301
30.6034
20.2348
23.675
23.5738
19.5442
19.605
19.5602
16.5091
16.5999
16.546
16.5667
23.9195
23.7941
30.5145
32.5544
32.6874
32.6967
24.7566
24.7799
24.715
24.0055
23.9339
23.9925
21.4578
24.2469
32.5762
32.669
32.6092
32.3136
19.8951
19.8552
30.8375
19.144
19.0848
19.1691
19.7716
19.8223
19.889
19.8312
28.6399
24.0678
19.054
19.1527
19.1054
24.9271
25.132
21.8671
23.3609
23.4466
16.6205
16.6498
18.4485
23.8995
23.836
17.7457
17.7971
17.8604
16.7875
16.6523
16.698
18.4714
18.4457
19.3132
19.4455
19.3483
23.4948
23.4345
22.2767
19.5173
19.4275
19.3566
18.9642
18.8561
19.0544
19.0144
19.178
19.1178
19.6898
19.5634
17.7769
17.8471
17.7618
17.799
22.6979
19.1044
20.4597
20.3582
20.4571
21.0455
20.7925
18.7226
18.751
18.3873
18.4823
19.0316
17.7949
17.864
32.6395
32.6346
23.8639
24.3092
24.2724
23.1667
20.0997
20.0921
17.6568
17.5936
17.578
17.5507
17.5161
19.555
23.6149
23.5639
17.8353
17.715
17.7542
18.9463
18.7688
18.8364
32.4767
32.5836
32.3712
20.0453
19.9685
19.8549
19.9334
24.7854
24.7395
31.5308
31.3608
20.2383
20.0996
26.271
26.4925
26.6474
20.3519
23.5269
23.5532
19.2359
19.3658
19.3015
23.929
23.954
16.8321
16.9345
16.8451
16.8583
17.2889
16.8772
16.56
16.9389
23.6498
24.2324
24.3157
19.2083
17.6193
17.6744
17.7062
17.6695
24.8616
24.812
28.0282
28.3023
17.5942
17.1391
18.2398
18.282
18.3371
18.7223
18.321
18.4633
19.4987
19.6007
19.5312
18.6882
18.6326
17.7418
24.2107
31.3013
31.0703
19.7596
19.8203
16.3398
16.4237
16.4399
16.3845
22.5572
22.6279
16.5869
16.5323
32.5204
27.9395
21.8661
21.879
22.1295
16.8779
16.9635
19.4918
19.4446
30.4229
30.4214
30.5459
30.351
30.3666
19.6825
19.7492
16.8501
19.9557
18.2488
18.2504
23.9248
22.7759
23.5876
23.5196
32.6499
32.6535
16.4347
16.5047
16.5056
18.2195
18.9816
18.9772
31.5621
19.4846
16.6075
16.3247
16.316
24.8907
24.8449
18.7112
22.5544
17.7393
17.6892
18.7138
21.4405
21.7811
19.0032
26.0671
23.2618
23.3391
19.641
19.6536
30.3703
20.4805
20.3056
19.6877
19.3473
19.5064
32.5294
32.5811
17.7875
17.6839
17.7538
17.8026
17.7631
21.2653
21.289
19.7603
17.8621
26.5811
16.48
17.5422
17.4707
32.5205
32.5418
21.5544
21.8104
21.263
16.8127
18.1632
18.261
19.1339
18.9162
18.1113
19.2692
19.6338
19.906
20.4928
23.2606
23.2197
23.2296
17.5583
17.874
24.8919
16.0888
16.0835
15.8865
15.9443
32.4358
16.0762
15.8732
16.331
16.2613
18.584
23.618
20.6062
17.6712
17.3237
16.3287
15.972
15.9285
SCALARS y_pXYvec float 1
LOOKUP_TABLE default
1.22778
1.2348
7.26616
7.27063
8.46968
8.46883
7.27216
6.13914
5.78184
5.61997
5.58419
5.27769
5.28947
5.11302
5.08944
4.91309
4.88453
4.57126
4.58438
4.27239
4.28437
4.02465
3.98958
3.81596
3.78449
3.49863
3.48955
3.27728
3.28947
3.1137
2.9921
2.77602
2.78948
2.58064
2.49254
2.28005
2.28488
1.98861
1.98949
1.79092
1.78472
1.49547
1.48522
1.23006
1.23138
1.23575
1.29142
1.25533
1.25819
1.26643
1.26677
1.27318
1.26457
1.26243
1.26103
1.26181
1.34535
1.27688
1.3574
1.28175
1.27547
1.27355
1.27245
1.27109
1.27048
1.27049
1.27181
1.27797
1.28175
1.27664
1.36449
1.2879
1.28152
1.27872
1.27612
1.27422
1.27293
1.27392
1.24139
1.23721
1.3995
1.49459
1.72903
1.82419
2.04849
2.1388
2.36271
2.45367
2.68448
2.77863
3.01307
3.17634
3.33278
3.4231
3.64832
3.73991
3.96886
4.13022
4.2917
4.38493
4.61224
4.77172
4.93117
5.02323
5.25019
5.40992
5.57032
5.73085
5.8918
6.05265
6.21308
6.37344
6.53355
6.69362
6.85357
6.94592
7.1737
7.26638
7.26681
7.26671
7.26653
7.26388
7.26056
7.26978
7.48075
7.62895
7.77605
7.9228
8.06826
8.2434
8.38686
8.47623
8.48044
8.47783
8.47602
8.47451
8.47364
8.47028
8.38368
8.17387
8.08875
7.94132
7.72806
7.5772
7.42435
7.18574
6.97384
6.89028
6.70227
6.51254
6.368
6.2229
6.0453
6.0208
6.00579
5.97851
5.95567
5.94249
5.91657
5.90652
5.88554
5.8773
5.85731
5.84922
5.8292
5.81496
5.80018
5.804
5.78995
5.72259
5.58007
5.58276
5.58377
5.58435
5.58431
5.5094
5.43509
5.39321
5.28984
5.29144
5.29094
5.29019
5.28996
5.28983
5.28957
5.2607
5.19003
5.16184
5.08883
5.08862
5.08864
5.08874
5.08914
5.08937
5.08944
5.06057
4.98975
4.96169
4.89156
4.89319
4.89195
4.89063
4.88904
4.88812
4.88558
4.84228
4.7691
4.69623
4.58713
4.58935
4.58871
4.58761
4.58688
4.58647
4.585
4.5417
4.46778
4.39521
4.28009
4.26115
4.27803
4.27685
4.2757
4.27503
4.2747
4.27466
4.27562
4.27609
4.27814
4.27904
4.28163
4.28271
4.28493
4.27294
4.28497
4.21042
4.13703
4.0959
3.98745
3.98752
3.98818
3.98849
3.98959
3.98146
3.98999
3.94029
3.91182
3.86373
3.78923
3.78754
3.78988
3.78937
3.78824
3.78759
3.78541
3.74211
3.66871
3.59577
3.49128
3.49177
3.49272
3.4938
3.49234
3.48067
3.48987
3.44011
3.41156
3.36321
3.28918
3.28909
3.2892
3.28936
3.2896
3.28975
3.28958
3.23966
3.19013
3.16215
3.08346
3.06652
3.05824
3.03035
3.02437
3.01728
2.99939
2.94223
2.8923
2.86334
2.78825
2.78828
2.78884
2.78927
2.78961
2.78981
2.78961
2.73971
2.6902
2.66221
2.57503
2.56287
2.55062
2.54355
2.52758
2.5212
2.50104
2.46495
2.41717
2.3348
2.28651
2.28637
2.2874
2.28841
2.28987
2.29071
2.28686
2.24356
2.12463
2.04977
1.98845
1.98835
1.98884
1.98926
1.98965
1.98988
1.98964
1.93975
1.89029
1.86233
1.79097
1.79104
1.78856
1.77056
1.78761
1.78902
1.78627
1.74297
1.67066
1.60056
1.49508
1.49469
1.49579
1.49469
1.49579
1.49469
1.48815
1.41529
1.37491
1.27968
3.73848
4.09765
5.70476
4.05379
3.01718
3.89281
2.50579
2.68733
2.68526
2.54618
5.35831
5.05702
2.17484
4.99845
4.9532
4.90003
4.84446
4.78333
1.90359
3.20091
3.17871
3.09726
3.09045
6.99018
3.66597
4.43734
4.50313
4.27046
2.83301
5.48693
3.87245
3.80219
5.6484
5.20089
1.93666
5.38654
2.02289
4.12437
1.63489
6.01004
5.43278
2.00415
2.21359
4.44708
4.77702
4.93848
4.46134
4.60982
2.10752
2.21023
6.40888
3.70301
3.60248
1.85298
3.75119
3.92539
3.99256
6.85018
2.95171
5.54761
5.2557
5.21212
4.52906
4.5707
4.29936
4.27624
3.96252
3.96731
4.29913
4.47414
4.19592
4.07876
3.52103
3.65596
3.60777
3.48161
3.44006
3.24711
3.41355
3.40065
2.49543
2.43122
5.58412
7.3038
4.52264
4.08345
3.3725
2.47573
3.95007
3.81886
2.03796
1.90888
6.06518
5.41889
8.25152
3.5077
3.62319
3.01792
2.94604
2.93888
3.91875
3.6882
3.82592
3.50705
3.40628
2.96939
2.88018
3.12484
3.51616
3.75508
4.1051
6.06788
3.16389
3.31124
4.23603
3.54139
4.10196
3.31907
4.88417
4.81283
4.71114
5.7244
6.98433
5.26806
4.36091
6.95194
2.09876
3.40694
5.12882
1.88752
3.92862
3.48874
5.35682
4.68594
4.13582
3.34076
4.71133
2.51696
7.84131
1.76597
3.29058
2.93546
2.75335
2.65354
3.89891
4.12879
3.24574
2.95992
3.03365
3.73651
5.41688
5.12549
5.10897
3.54832
1.73183
2.28746
2.52793
4.23212
2.55402
2.44462
4.22121
3.12021
4.49573
6.76037
6.81654
6.67278
4.40038
2.64818
2.64305
3.05097
3.18665
2.68751
3.22232
3.51548
3.46494
3.38929
3.71724
4.928
3.71006
6.0121
5.75302
5.41382
3.37046
2.92615
3.01134
2.52744
3.49311
3.02382
4.59688
3.60813
2.38474
2.20704
2.16801
2.48545
2.6719
2.77527
7.33883
2.9994
1.45653
4.85669
2.90683
8.03397
5.18287
3.86747
3.13825
4.10794
4.82071
5.17847
2.68719
1.55029
1.94881
3.33192
2.82496
3.11084
2.59833
3.06946
2.77808
2.52385
2.81651
2.20194
4.46627
1.8546
4.91422
2.85259
3.23512
5.37689
2.34635
2.17234
2.07236
4.62609
4.90964
4.49248
1.94204
4.66529
5.09529
3.21574
2.62987
5.2594
3.63578
2.0476
4.67287
5.45405
3.69338
3.85234
3.7638
3.47035
4.74114
5.34097
4.95259
4.88722
1.94957
4.70124
6.12469
4.86145
3.87314
3.38608
4.23293
2.29511
2.02964
3.877
3.76563
4.02179
3.93501
2.22975
2.2237
2.06216
1.99265
5.35977
2.18463
1.75978
6.48811
6.4185
7.70277
7.87307
1.57759
4.08822
5.25835
5.42718
6.36482
7.62493
7.29608
6.57289
4.11001
3.42868
4.51619
2.63724
5.43127
6.39872
5.74979
8.00354
6.64451
6.98539
6.41445
3.57254
1.90142
5.6113
4.08548
3.71713
3.44748
4.49512
4.50982
4.97956
3.20764
7.01845
6.90298
6.72581
3.36013
4.03532
4.3035
2.78505
4.87495
4.70948
1.72417
1.66477
1.47945
1.72316
3.97045
3.85133
2.96633
4.92209
2.42225
3.06441
5.12227
5.22757
2.32437
4.84235
2.47889
2.43917
1.96512
4.58489
3.29553
1.83793
3.2256
3.2207
2.77322
3.21299
2.40073
6.41762
5.1935
2.98801
1.9566
4.97874
3.13456
4.76487
3.59933
2.69643
8.25474
2.47644
3.49975
2.5937
4.34226
4.30832
1.95732
2.4731
1.86326
1.86385
4.29266
3.70452
2.35779
3.41485
2.81656
4.81813
1.94365
2.60323
2.45584
4.97543
4.11224
5.37102
2.5964
2.70082
2.78002
4.00685
3.32127
8.3344
1.69251
2.23837
1.83204
4.18114
2.97141
2.92759
3.82333
2.91366
6.01785
6.19464
6.67503
3.8944
3.1908
3.64131
3.29842
2.65532
5.70054
2.86152
5.09175
5.00782
4.10399
5.04201
2.40573
3.24724
5.44207
2.40952
3.50849
1.66235
2.22135
2.76157
7.00151
2.77094
2.05325
2.58271
4.1746
3.09251
4.79948
1.70705
6.65527
4.32604
3.93718
3.9889
7.5528
4.99094
5.19486
4.62271
5.24533
6.95259
3.19489
1.51324
3.41294
2.69595
1.89639
4.48545
4.12192
3.69492
1.80692
3.2761
2.40796
3.91597
3.56754
2.00055
5.5956
2.38495
3.53239
7.76997
2.94305
3.4192
1.89693
3.41605
1.6025
3.60723
4.33939
8.11789
4.17369
3.91146
8.22497
2.26452
4.60608
1.48017
1.46994
1.46994
8.01569
7.94335
8.13141
8.21202
8.10943
3.06337
3.1231
3.29249
3.18309
3.20088
5.19271
5.39404
5.16199
4.97267
5.13796
4.51812
4.55569
4.63053
4.65937
4.61096
5.05519
5.08365
5.47681
5.55582
5.3792
2.93299
2.74805
2.39456
2.47663
2.58719
7.21159
6.98986
7.13106
7.34755
7.20007
4.10946
4.03294
3.85175
3.97612
3.94973
7.47448
7.27445
7.62145
7.47817
3.90092
4.08612
3.9582
3.76253
3.89905
4.53124
4.61782
4.8989
4.79238
4.75353
6.53306
6.74494
6.57823
6.3512
6.51506
3.31837
3.39361
3.41629
3.37042
2.19016
2.11694
2.02137
2.10849
2.08753
4.50869
4.42509
4.35457
4.47735
4.43497
1.99325
2.11108
2.18669
2.11268
4.63796
4.57415
4.96292
5.1684
4.93972
3.32772
3.42109
3.72028
3.62189
3.56549
4.16918
4.49246
4.83693
4.61748
4.5685
4.49742
4.60235
4.84947
4.77818
4.71932
2.48147
2.78708
3.20301
2.78614
2.90892
2.32041
1.82254
2.27331
2.15097
4.73639
4.69725
4.76764
4.81294
4.76535
3.70452
3.63246
3.58353
3.64627
3.63229
5.04831
5.20908
5.42617
5.26947
3.86097
3.60175
3.3478
3.51506
3.55378
2.41578
2.20434
2.32428
2.52391
2.39208
3.45018
3.69804
3.84108
3.61276
3.67767
4.90593
4.71057
4.30156
4.55604
3.46198
3.61489
3.83632
3.71539
3.69202
4.63599
4.14076
4.2091
4.4949
5.1156
5.42922
5.16063
5.14152
3.11146
3.31113
3.24862
3.35525
3.50551
3.77684
3.92514
3.74151
4.55671
4.18922
4.35037
4.63756
4.43418
5.55177
5.78585
6.06255
5.86397
5.85959
2.03971
1.76361
1.48164
1.50511
3.09481
2.86147
3.02857
3.34499
3.14656
3.82628
3.84146
3.76344
3.72425
3.76605
5.09515
4.40985
4.58283
4.86769
2.7502
2.8256
2.71848
2.67257
2.73593
5.24281
5.46391
5.31197
2.24946
1.85069
1.98824
2.11114
3.84848
3.62826
3.73323
1.61526
1.46302
1.94237
1.6075
2.65791
2.45308
2.65102
2.65631
2.67281
2.57588
2.79342
2.80689
2.73543
5.8091
5.73575
5.46854
5.58358
3.90623
4.39792
3.84201
4.11892
4.04171
4.30557
4.37062
3.99322
4.18772
2.56458
2.61617
2.70393
2.65646
2.64924
4.7845
4.71093
5.12432
5.20409
5.22655
5.15626
5.17386
4.62442
5.45425
5.10811
1.44097
1.94147
1.71985
1.64457
6.40596
6.2625
6.01499
6.16678
6.17634
4.23555
3.86145
4.05049
4.0065
2.22591
2.31094
2.39097
2.32686
2.32672
3.81443
3.45324
3.63583
6.68873
6.78093
6.38488
6.55522
6.07654
5.60317
5.90679
5.80898
1.6216
1.64428
1.88396
1.87437
1.70757
1.77367
4.34924
4.54345
4.40637
4.80586
4.92754
4.85793
4.80956
4.43657
4.9728
4.73889
3.48371
3.25533
3.02995
3.22264
6.2411
6.17657
6.24555
3.15748
3.12384
3.00311
3.03721
3.05181
6.14967
6.17432
5.94343
5.92919
5.96694
4.59425
4.47853
1.73287
1.67261
1.64066
4.84045
4.82309
4.91048
4.92501
4.88777
5.60612
6.08144
5.90532
1.468
1.93361
1.60408
3.93504
4.01283
4.1315
4.07479
4.05558
5.90512
5.63016
5.93178
4.23662
4.14646
4.23548
4.20997
2.93949
2.82404
2.82038
2.94893
2.88574
3.25309
3.32872
3.52334
3.42862
1.85227
1.42777
1.433
1.5051
1.97163
1.64694
5.30984
4.81786
5.00841
7.12644
6.92662
6.81823
7.07391
6.99704
4.12164
3.89065
3.82325
4.13703
3.99908
7.12753
6.98647
7.12664
2.21115
1.84318
3.9428
4.20779
4.04049
5.51927
5.75097
5.51075
5.58775
5.35197
5.70085
5.58697
5.69091
2.10572
1.79921
1.50425
1.52804
4.5365
4.61853
4.73739
4.62748
4.65598
2.02647
1.6363
1.4938
3.61446
3.68825
3.7155
3.67415
3.90953
3.93489
4.04671
4.06629
4.01219
5.42011
5.37417
5.24834
5.29311
5.31709
1.43722
1.74687
2.00047
1.478
1.71312
1.68487
1.98241
1.63933
5.43809
5.09474
5.17964
5.31492
4.79419
5.01076
4.99064
5.71459
5.70476
6.84235
7.04567
6.89566
6.83232
4.09077
3.96956
4.78228
4.72513
4.85732
4.90518
4.83589
5.19621
4.9756
5.13611
5.45494
5.24708
4.08616
4.32395
4.2273
3.98056
4.13254
3.58909
3.8788
2.55201
2.40748
2.79489
2.45514
3.20818
3.15219
3.06263
3.12873
3.12503
2.26627
2.59582
2.27228
2.40656
2.76666
2.49306
3.3472
3.17347
3.20061
3.27793
4.02137
4.20553
4.44926
7.89847
7.72568
7.7493
5.4846
5.01334
5.28103
2.65423
2.37503
7.98683
7.60151
7.89198
7.77426
2.87303
2.88622
3.00874
6.20838
6.41646
6.24894
4.27848
4.39141
7.28271
7.47093
7.45295
1.63072
1.84532
1.43069
7.12882
6.21319
6.1894
1.55672
1.68644
1.69344
1.62709
5.45898
5.41087
5.31314
5.36902
3.9762
3.74881
3.53018
3.78008
3.71544
5.60522
5.71907
4.17444
4.17699
4.2257
5.42086
5.0356
5.19945
2.91718
2.95061
2.88405
2.84504
2.88188
4.10881
4.22177
4.23145
2.61925
2.2656
2.34957
2.77096
2.49784
8.1527
7.94416
8.00464
4.06666
3.63776
3.74893
3.99328
4.93662
4.90286
4.74202
4.82299
7.71688
7.56076
7.81229
7.71878
6.98897
7.15687
7.19679
3.01053
2.844
3.246
3.00929
4.54709
4.39256
4.45264
4.59728
4.51496
6.01429
6.45067
6.27633
2.22187
2.23359
2.25298
5.74119
5.51314
6.06655
5.84505
5.8353
5.65368
5.62616
1.47218
1.9887
1.63002
7.2989
7.43047
7.65342
7.51331
6.60773
6.79066
6.73587
6.38609
6.15891
6.93025
7.10815
7.16518
2.11258
2.55985
2.25574
4.88079
4.77152
4.77942
2.98587
2.67337
2.41826
2.66004
4.68637
4.41298
4.04623
4.20884
4.2919
6.36655
6.51286
6.64222
6.53512
5.64962
5.58359
8.2988
8.31232
8.22954
3.80302
3.96154
3.90326
6.77236
6.91177
6.91372
2.56401
2.47322
2.48467
2.53328
4.07655
4.16533
4.16731
4.21801
6.85616
6.70217
6.55454
6.4774
6.414
6.3031
6.22565
4.77334
5.22192
4.97835
5.15888
5.08282
5.19773
5.20593
5.46502
5.48743
4.16297
4.21843
3.82114
3.45186
3.60735
3.69822
2.33408
2.19612
1.87236
4.90557
4.92225
3.95704
3.95584
3.8926
3.94033
5.44854
5.50116
5.52562
4.52291
4.64108
4.66853
3.46692
3.61354
1.96017
1.47587
3.45938
3.75779
3.84303
3.87766
2.29578
2.00578
2.38916
2.1726
4.24213
4.47515
5.74064
5.49401
3.25642
3.03736
2.89143
3.04489
4.36668
4.26135
4.30353
4.34495
3.41637
3.33116
3.14213
3.24431
4.08334
3.62353
3.86446
3.98395
4.09257
4.30574
4.51568
3.8769
4.1187
2.77547
2.64772
2.49291
2.60985
4.68626
4.36918
4.24912
4.17727
4.26998
5.01564
5.00025
5.11525
5.12463
5.08334
4.78871
4.40768
4.5813
4.17831
4.07981
4.29728
4.22458
2.96344
3.04593
3.26856
3.13625
4.94464
4.95217
5.00643
4.95561
3.80193
4.00381
4.23373
2.39275
2.24809
2.32214
3.07803
3.29385
3.06179
2.62616
2.92423
5.23612
5.22185
5.3436
5.29805
3.36062
3.39008
3.43841
3.43513
3.41367
5.43764
5.51029
5.51058
3.6192
3.11003
3.25394
3.45345
3.51978
3.68223
3.6092
2.90011
2.96826
2.95545
4.05841
4.30264
4.13977
4.9906
5.03905
5.06059
3.43773
3.44331
5.19164
5.24168
5.26107
2.20904
2.20104
2.07957
2.13588
3.64978
3.24135
3.40228
3.90204
3.61014
5.70209
5.48739
5.4269
2.87245
2.93017
3.14337
3.19202
3.24123
3.24071
2.94325
2.74315
3.0091
4.52897
4.53893
4.53817
3.42834
3.70437
3.87419
3.92849
3.9559
2.30641
2.24963
2.15339
1.89265
1.94199
1.94127
4.64389
4.14886
3.75468
3.92738
2.98121
2.91411
2.99846
3.02073
2.54905
2.62739
2.70036
2.64108
3.27379
3.48653
3.71224
3.96156
3.53798
3.71355
2.24673
2.25095
6.60595
6.81591
6.73581
3.28973
3.43167
3.08394
3.31155
3.64384
3.72858
3.74388
3.70888
4.15472
4.15831
3.68919
3.57106
3.65689
3.76801
3.68931
3.91978
3.69738
3.80298
4.04142
3.95338
4.14893
4.08331
7.17613
6.95015
7.17453
2.21335
2.22326
4.94523
3.83861
3.89536
3.85055
2.98016
3.14251
3.19522
3.08709
3.15721
3.20904
3.16031
1.63917
1.48308
1.52449
1.53621
4.33885
4.40958
4.47694
4.40714
1.93462
1.96067
2.03672
4.52242
4.54403
6.95243
7.17575
5.5045
4.18785
3.73324
3.99054
4.91848
4.86277
7.42559
2.52885
2.29341
3.45368
3.46443
3.4714
3.26566
2.90621
3.04305
3.13763
2.1838
2.37175
2.40668
3.3898
3.30821
3.28971
3.34017
4.48635
4.51694
5.03479
5.02695
5.03663
3.51615
3.67462
3.96427
3.78251
3.73909
3.74278
2.6923
2.7416
2.741
5.03548
4.97904
5.03486
8.18907
8.34892
8.38909
3.40419
3.5998
3.6149
2.93795
2.76472
2.5208
8.10388
8.10801
5.84996
5.91162
4.1569
4.15516
2.143
1.93275
1.80277
2.08188
1.98422
3.23899
3.23745
3.23781
4.34734
4.79089
4.6083
2.47335
2.44841
2.43053
2.41622
3.83137
3.89339
3.83137
3.75298
3.80985
3.35406
3.37303
3.41761
3.35587
2.88081
2.65553
2.92535
2.73849
2.73283
2.73494
3.97501
4.11536
3.97693
3.21522
3.40673
3.63177
2.4907
2.47694
3.11227
5.48637
3.68753
3.7598
3.51972
3.08468
3.17718
3.2865
3.64735
3.90188
1.83918
1.93252
1.72412
1.86161
3.32396
3.51188
5.02282
4.9134
4.93851
2.71979
2.73252
4.04703
4.1635
4.31294
3.2765
3.06333
3.07182
3.31567
3.58034
3.695
3.70643
2.69027
2.73963
8.42698
8.36374
3.4129
3.60619
6.91185
6.67421
6.89894
2.23304
2.40993
2.80708
2.77476
4.49158
4.34815
4.40395
3.72884
3.74555
6.56861
6.72223
6.59571
5.01728
5.14488
5.10117
2.93701
3.20625
1.93841
1.88191
1.93324
1.93497
3.45284
3.47284
5.10988
8.32409
8.41725
6.80382
6.85411
4.86096
4.81594
4.82653
4.8458
3.75425
3.86806
4.14491
4.2106
4.21641
5.24376
5.25095
5.25026
4.74317
4.83628
4.80457
2.14065
2.67086
2.20371
5.81325
3.06794
3.3096
3.05056
3.01746
3.06128
3.06519
3.22886
3.2384
3.97969
4.03323
4.02113
3.88477
3.69772
4.34868
4.1252
4.2541
6.65133
6.79696
6.80081
2.2384
2.76495
2.52629
2.5184
2.7753
2.66846
2.72784
2.80934
2.80732
3.40154
7.81073
8.08717
7.93726
2.64896
2.81471
1.95212
1.53354
1.57739
1.60289
5.37058
5.73347
5.51115
5.5716
5.11987
5.05374
4.98351
2.40679
2.3787
2.25382
2.22788
2.29314
7.01225
7.21429
2.08964
2.33939
1.99672
3.03373
3.11917
3.12851
3.09469
4.99536
4.97118
5.01641
4.28332
4.05843
2.98821
2.98494
3.0394
4.37339
4.46361
4.08963
4.06144
3.40982
3.47424
3.46745
3.83596
2.94411
3.05261
4.14963
4.11663
7.83533
7.86026
4.8463
4.85685
5.84684
3.46713
3.53124
3.49677
4.04828
3.24642
3.03128
3.11547
4.47976
4.28096
4.36913
4.37005
4.27563
5.21479
5.23505
4.73525
4.75722
4.80943
3.84673
3.66217
3.72358
3.3863
3.49731
3.47581
3.41338
4.39867
4.36523
2.98691
2.6463
2.78844
6.29619
4.17996
4.83193
4.8462
1.73705
1.74877
3.25251
2.8131
2.99736
3.34512
3.45591
3.37362
4.70184
4.76629
1.66067
1.78916
1.7673
1.63667
1.68796
3.24624
3.06436
2.78813
3.0824
5.16438
5.32668
5.25986
3.89822
3.91778
3.87237
6.51184
6.5349
2.98049
2.97951
3.0985
3.92741
3.88092
2.23647
2.48683
2.43327
2.06746
1.99604
1.58272
1.76001
2.87092
2.87394
2.66074
2.69983
2.75499
4.91949
4.9924
2.96781
2.90631
2.97614
1.70349
1.72309
7.77638
3.9278
4.40828
4.42919
3.49487
3.55002
3.55872
1.76612
1.82658
1.82965
1.79731
4.38912
4.39685
6.88777
3.60782
3.46876
3.66607
5.3099
5.47679
5.41102
4.5443
4.82209
4.72124
3.334
5.39967
3.45512
3.33167
6.79294
6.56346
3.93994
3.94432
6.5108
3.04366
2.87551
2.93091
3.62572
3.58907
3.64263
3.65876
5.70571
4.39518
3.21998
3.20379
3.29051
5.30256
5.21171
3.97165
4.68332
4.63546
1.89314
1.93972
2.96221
5.15299
5.16532
2.12997
2.30738
2.22779
1.80989
1.85802
1.82311
2.69269
2.80727
3.31836
3.36793
3.38353
4.95104
4.96475
4.12275
2.59287
2.33808
2.50062
1.87064
1.57934
3.1668
3.05678
3.12275
3.07984
2.48501
2.64227
2.53755
2.61522
2.62863
2.59525
4.52658
3.4156
4.1502
4.10969
2.46221
2.46684
2.45769
3.19187
3.23981
2.58192
2.63093
3.197
2.67446
2.6628
2.46966
2.63804
4.87784
5.11201
4.98805
4.84104
3.43227
3.34001
2.42844
2.48605
2.43536
2.50056
2.49491
3.73534
3.6691
3.46066
2.37741
2.42362
2.3676
2.8572
2.8252
2.8713
2.08444
2.34355
2.33851
3.48825
3.60743
3.51866
3.5357
5.23688
5.10552
2.54767
2.13652
3.47333
3.48307
2.70319
2.40714
2.64267
2.48278
4.98696
5.03679
3.22324
3.22581
3.25719
5.19436
5.243
1.74433
1.84343
1.90279
1.84606
1.47285
1.58116
1.37984
1.33342
3.77606
5.18041
5.15585
3.1531
2.51794
2.48724
2.53319
2.53298
5.41815
5.2887
3.04943
3.3051
2.51158
1.93425
2.65141
2.51882
2.59232
1.97518
2.1638
2.04444
3.39701
3.46867
3.46732
3.15664
3.16648
2.66669
5.20273
2.7396
2.94928
3.5804
3.52993
1.70382
1.6692
1.74865
1.75732
4.25366
4.32363
1.85933
1.86715
3.51162
2.87845
2.65368
2.13071
2.33445
1.93471
1.90124
3.29814
3.19873
8.36256
8.20465
8.27647
8.24385
8.35757
3.59003
3.60704
1.93417
3.68149
2.34086
2.20214
5.14421
3.99931
4.94075
4.93847
2.18409
2.32619
1.59036
1.72353
1.65445
2.68514
2.93434
3.04642
2.69762
3.36285
1.85094
1.61436
1.68016
5.61448
5.47479
3.14578
4.16598
2.47046
2.46395
2.82344
2.62821
2.76118
2.845
2.73428
4.67889
4.71046
3.50295
3.58301
8.1865
3.49436
3.47639
2.30384
2.13898
2.16652
1.89993
2.04709
1.66835
2.06863
1.92421
2.45472
2.51299
2.24794
2.60328
2.38526
2.40653
2.13104
1.76628
2.12129
2.19794
1.5299
1.71485
2.11389
1.81373
2.09852
1.67783
2.48716
2.406
2.01044
2.06918
2.49698
2.09193
3.47128
3.91931
4.18183
4.61662
4.55254
4.66774
1.52658
1.40651
5.72657
1.35926
1.45839
1.4178
1.38774
1.42342
1.48165
1.44433
1.49181
1.3668
2.97408
4.94217
3.59685
2.12679
1.56482
1.53667
1.48427
1.47735
SCALARS z_pXYvec float 1
LOOKUP_TABLE default
0
0
0
0
0
0
0
0
0
0
0
0
0
0
0
0
0
0
0
0
0
0
0
0
0
0
0
0
0
0
0
0
0
0
0
0
0
0
0
0
0
0
0
0
0
0
0
0
0
0
0
0
0
0
0
0
0
0
0
0
0
0
0
0
0
0
0
0
0
0
0
0
0
0
0
0
0
0
0
0
0
0
0
0
0
0
0
0
0
0
0
0
0
0
0
0
0
0
0
0
0
0
0
0
0
0
0
0
0
0
0
0
0
0
0
0
0
0
0
0
0
0
0
0
0
0
0
0
0
0
0
0
0
0
0
0
0
0
0
0
0
0
0
0
0
0
0
0
0
0
0
0
0
0
0
0
0
0
0
0
0
0
0
0
0
0
0
0
0
0
0
0
0
0
0
0
0
0
0
0
0
0
0
0
0
0
0
0
0
0
0
0
0
0
0
0
0
0
0
0
0
0
0
0
0
0
0
0
0
0
0
0
0
0
0
0
0
0
0
0
0
0
0
0
0
0
0
0
0
0
0
0
0
0
0
0
0
0
0
0
0
0
0
0
0
0
0
0
0
0
0
0
0
0
0
0
0
0
0
0
0
0
0
0
0
0
0
0
0
0
0
0
0
0
0
0
0
0
0
0
0
0
0
0
0
0
0
0
0
0
0
0
0
0
0
0
0
0
0
0
0
0
0
0
0
0
0
0
0
0
0
0
0
0
0
0
0
0
0
0
0
0
0
0
0
0
0
0
0
0
0
0
0
0
0
0
0
0
0
0
0
0
0
0
0
0
0
0
0
0
0
0
0
0
0
0
0
0
0
0
0
0
0
0
0
0
0
0
0
0
0
0
0
0
0
0
0
0
0
0
0
0
0
0
0
0
0
0
0
0
0
0
0
0
0
0
0
0
0
0
0
0
0
0
0
0
0
0
0
0
0
0
0
0
0
0
0
0
0
0
0
0
0
0
0
0
0
0
0
0
0
0
0
0
0
0
0
0
0
0
0
0
0
0
0
0
0
0
0
0
0
0
0
0
0
0
0
0
0
0
0
0
0
0
0
0
0
0
0
0
0
0
0
0
0
0
0
0
0
0
0
0
0
0
0
0
0
0
0
0
0
0
0
0
0
0
0
0
0
0
0
0
0
0
0
0
0
0
0
0
0
0
0
0
0
0
0
0
0
0
0
0
0
0
0
0
0
0
0
0
0
0
0
0
0
0
0
0
0
0
0
0
0
0
0
0
0
0
0
0
0
0
0
0
0
0
0
0
0
0
0
0
0
0
0
0
0
0
0
0
0
0
0
0
0
0
0
0
0
0
0
0
0
0
0
0
0
0
0
0
0
0
0
0
0
0
0
0
0
0
0
0
0
0
0
0
0
0
0
0
0
0
0
0
0
0
0
0
0
0
0
0
0
0
0
0
0
0
0
0
0
0
0
0
0
0
0
0
0
0
0
0
0
0
0
0
0
0
0
0
0
0
0
0
0
0
0
0
0
0
0
0
0
0
0
0
0
0
0
0
0
0
0
0
0
0
0
0
0
0
0
0
0
0
0
0
0
0
0
0
0
0
0
0
0
0
0
0
0
0
0
0
0
0
0
0
0
0
0
0
0
0
0
0
0
0
0
0
0
0
0
0
0
0
0
0
0
0
0
0
0
0
0
0
0
0
0
0
0
0
0
0
0
0
0
0
0
0
0
0
0
0
0
0
0
0
0
0
0
0
0
0
0
0
0
0
0
0
0
0
0
0
0
0
0
0
0
0
0
0
0
0
0
0
0
0
0
0
0
0
0
0
0
0
0
0
0
0
0
0
0
0
0
0
0
0
0
0
0
0
0
0
0
0
0
0
0
0
0
0
0
0
0
0
0
0
0
0
0
0
0
0
0
0
0
0
0
0
0
0
0
0
0
0
0
0
0
0
0
0
0
0
0
0
0
0
0
0
0
0
0
0
0
0
0
0
0
0
0
0
0
0
0
0
0
0
0
0
0
0
0
0
0
0
0
0
0
0
0
0
0
0
0
0
0
0
0
0
0
0
0
0
0
0
0
0
0
0
0
0
0
0
0
0
0
0
0
0
0
0
0
0
0
0
0
0
0
0
0
0
0
0
0
0
0
0
0
0
0
0
0
0
0
0
0
0
0
0
0
0
0
0
0
0
0
0
0
0
0
0
0
0
0
0
0
0
0
0
0
0
0
0
0
0
0
0
0
0
0
0
0
0
0
0
0
0
0
0
0
0
0
0
0
0
0
0
0
0
0
0
0
0
0
0
0
0
0
0
0
0
0
0
0
0
0
0
0
0
0
0
0
0
0
0
0
0
0
0
0
0
0
0
0
0
0
0
0
0
0
0
0
0
0
0
0
0
0
0
0
0
0
0
0
0
0
0
0
0
0
0
0
0
0
0
0
0
0
0
0
0
0
0
0
0
0
0
0
0
0
0
0
0
0
0
0
0
0
0
0
0
0
0
0
0
0
0
0
0
0
0
0
0
0
0
0
0
0
0
0
0
0
0
0
0
0
0
0
0
0
0
0
0
0
0
0
0
0
0
0
0
0
0
0
0
0
0
0
0
0
0
0
0
0
0
0
0
0
0
0
0
0
0
0
0
0
0
0
0
0
0
0
0
0
0
0
0
0
0
0
0
0
0
0
0
0
0
0
0
0
0
0
0
0
0
0
0
0
0
0
0
0
0
0
0
0
0
0
0
0
0
0
0
0
0
0
0
0
0
0
0
0
0
0
0
0
0
0
0
0
0
0
0
0
0
0
0
0
0
0
0
0
0
0
0
0
0
0
0
0
0
0
0
0
0
0
0
0
0
0
0
0
0
0
0
0
0
0
0
0
0
0
0
0
0
0
0
0
0
0
0
0
0
0
0
0
0
0
0
0
0
0
0
0
0
0
0
0
0
0
0
0
0
0
0
0
0
0
0
0
0
0
0
0
0
0
0
0
0
0
0
0
0
0
0
0
0
0
0
0
0
0
0
0
0
0
0
0
0
0
0
0
0
0
0
0
0
0
0
0
0
0
0
0
0
0
0
0
0
0
0
0
0
0
0
0
0
0
0
0
0
0
0
0
0
0
0
0
0
0
0
0
0
0
0
0
0
0
0
0
0
0
0
0
0
0
0
0
0
0
0
0
0
0
0
0
0
0
0
0
0
0
0
0
0
0
0
0
0
0
0
0
0
0
0
0
0
0
0
0
0
0
0
0
0
0
0
0
0
0
0
0
0
0
0
0
0
0
0
0
0
0
0
0
0
0
0
0
0
0
0
0
0
0
0
0
0
0
0
0
0
0
0
0
0
0
0
0
0
0
0
0
0
0
0
0
0
0
0
0
0
0
0
0
0
0
0
0
0
0
0
0
0
0
0
0
0
0
0
0
0
0
0
0
0
0
0
0
0
0
0
0
0
0
0
0
0
0
0
0
0
0
0
0
0
0
0
0
0
0
0
0
0
0
0
0
0
0
0
0
0
0
0
0
0
0
0
0
0
0
0
0
0
0
0
0
0
0
0
0
0
0
0
0
0
0
0
0
0
0
0
0
0
0
0
0
0
0
0
0
0
0
0
0
0
0
0
0
0
0
0
0
0
0
0
0
0
0
0
0
0
0
0
0
0
0
0
0
0
0
0
0
0
0
0
0
0
0
0
0
0
0
0
0
0
0
0
0
0
0
0
0
0
0
0
0
0
0
0
0
0
0
0
0
0
0
0
0
0
0
0
0
0
0
0
0
0
0
0
0
0
0
0
0
0
0
0
0
0
0
0
0
0
0
0
0
0
0
0
0
0
0
0
0
0
0
0
0
0
0
0
0
0
0
0
0
0
0
0
0
0
0
0
0
0
0
0
0
0
0
0
0
0
0
0
0
0
0
0
0
0
0
0
0
0
0
0
0
0
0
0
0
0
0
0
0
0
0
0
0
0
0
0
0
0
0
0
0
0
0
0
0
0
0
0
0
0
0
0
0
0
0
0
0
0
0
0
0
0
0
0
0
0
0
0
0
0
0
0
0
0
0
0
0
0
0
0
0
0
0
0
0
0
0
0
0
0
0
0
0
0
0
0
0
0
0
0
0
0
0
0
0
0
0
0
0
0
0
0
0
0
0
0
0
0
0
0
0
0
0
0
0
0
0
0
0
0
0
0
0
0
0
0
0
0
0
0
0
0
0
0
0
0
0
0
0
0
0
0
0
0
0
0
0
0
0
0
0
0
0
0
0
0
0
0
0
0
0
0
0
0
0
0
0
0
0
0
0
0
0
0
0
0
0
0
0
0
0
0
0
0
0
0
0
0
0
0
0
0
0
0
0
0
0
0
0
0
0
0
0
0
0
0
0
0
0
0
0
0
0
0
0
0
0
0
0
0
0
0
0
0
0
0
0
0
0
0
0
0
0
0
0
0
0
0
0
0
0
0
0
0
0
0
0
0
0
0
0
0
0
0
0
0
0
0
0
0
0
0
0
0
0
0
0
0
0
0
0
0
0
0
0
0
0
0
0
0
0
0
0
0
0
0
0
0
0
0
0
0
0
0
0
0
0
0
0
0
0
0
0
0
0
0
0
0
0
0
0
0
0
0
0
0
0
0
0
0
0
0
0
0
0
0
0
0
0
0
0
0
0
0
0
0
0
0
0
0
0
0
0
0
0
0
0
0
0
0
0
0
0
0
0
0
0
0
0
0
0
0
0
0
0
0
0
0
0
0
0
0
0
0
0
0
0
0
0
0
0
0
0
0
0
0
0
0
0
0
0
0
0
0
0
0
0
0
0
0
0
0
0
0
0
0
0
0
0
0
0
0
0
0
0
0
0
0
0
0
0
0
0
0
0
0
0
0
0
0
0
0
0
0
0
0
0
0
0
0
0
0
0
0
0
0
0
0
0
0
0
0
0
0
0
0
0
0
0
0
0
0
0
0
0
0
0
0
0
0
0
0
0
0
0
0
0
0
0
0
0
0
0
0
0
0
0
0
0
0
0
0
0
0
0
0
0
0
0
0
0
0
0
0
0
0
0
0
0
0
0
0
0
0
0
0
0
0
0
0
0
0
0
0
0
0
0
0
0
0
0
0
0
0
0
0
0
0
0
0
0
0
0
0
0
0
0
0
0
0
0
0
0
0
0
0
0
0
0
0
0
0
0
0
0
0
0
0
0
0
0
0
0
0
0
0
0
0
0
0
0
0
0
0
0
0
0
0
0
0
0
0
0
0
0
0
0
0
0
0
0
0
0
0
0
0
0
0
0
0
0
0
0
0
0
0
0
